ITEM: TIMESTEP
600000
ITEM: NUMBER OF ATOMS
1995
ITEM: BOX BOUNDS ff pp pp
-265 265
0 530
-0.5 0.5
ITEM: ATOMS id type radius mass x y z c_acontact
380 1 3.14767 13.0634 13.9397 4.61641 0 2
249 1 2.31476 5.19523 -18.6987 8.10867 0 2
25 1 2.74421 8.65644 4.36492 10.2997 0 3
230 1 2.97916 11.0756 9.23938 7.97654 0 3
22 1 2.89557 10.1693 14.8493 10.314 0 4
321 1 2.9805 11.0906 -20.894 12.6339 0 3
271 1 2.72988 8.52158 -15.4253 11.3226 0 4
218 1 2.36618 5.54919 -10.8637 12.5651 0 3
438 1 2.96801 10.9518 -5.89281 12.3591 0 4
164 1 2.71896 8.41975 -0.521091 11.9233 0 3
353 1 3.12702 12.8079 10.2169 13.8395 0 3
360 1 2.79552 9.15115 20.4332 11.0037 0 3
184 1 2.50335 6.57135 24.3561 14.488 0 2
425 1 2.73352 8.55566 -26.3725 16.45 0 2
222 1 2.63023 7.62203 -21.5738 17.9297 0 4
291 1 2.6978 8.22468 -15.2899 16.4664 0 3
329 1 2.28577 5.00246 -8.80148 16.7198 0 2
120 1 2.57325 7.13728 -2.70682 16.6781 0 4
154 1 2.83869 9.58171 4.46189 15.7798 0 3
480 1 2.91106 10.3333 17.0587 15.4799 0 3
237 1 2.71049 8.34123 -27.5894 21.3936 0 4
162 1 2.67992 8.06221 -17.7432 21.1362 0 4
173 1 2.97486 11.0278 -12.2828 20.9769 0 4
77 1 2.78566 9.05471 -4.17922 21.7217 0 4
504 1 2.23727 4.69076 1.05281 19.4092 0 4
307 1 2.4483 6.14726 4.99262 21.7183 0 5
336 1 2.41739 5.91739 8.61165 18.8609 0 5
340 1 2.8704 9.90644 13.537 20.2125 0 4
423 1 2.37209 5.5909 18.5589 20.3181 0 5
433 1 2.57183 7.12553 23.1541 19.2732 0 4
314 1 2.82002 9.39384 28.326 18.801 0 3
93 1 2.226 4.62021 -35.6256 25.1871 0 3
208 1 2.34939 5.43192 -32.3608 22.278 0 2
225 1 2.32203 5.24433 -22.8777 22.4126 0 3
250 1 2.24349 4.72998 -15.3313 25.1715 0 3
476 1 2.84381 9.63366 -8.59945 25.0517 0 5
232 1 2.80812 9.27544 0.706713 24.3352 0 6
119 1 2.56516 7.07024 9.51643 23.6424 0 5
206 1 2.59366 7.30853 16.5546 24.6635 0 4
52 1 2.54739 6.92429 21.5691 24.0558 0 5
41 1 2.90056 10.222 26.8934 24.1786 0 4
274 1 2.68406 8.09964 32.1701 22.5647 0 3
18 1 2.57298 7.13507 -32.3655 28.3085 0 3
266 1 3.10218 12.5052 -27.0801 26.87 0 4
455 1 2.53098 6.79133 -21.0686 26.5851 0 3
12 1 2.37916 5.64103 -12.407 28.4555 0 4
466 1 2.74283 8.64343 -3.77144 27.2167 0 5
58 1 2.63485 7.66223 5.53408 26.7721 0 4
114 1 2.82001 9.39378 10.6963 28.7476 0 3
246 1 2.75302 8.74008 23.287 28.9429 0 3
196 1 2.4638 6.26473 28.9894 28.9262 0 2
3 1 2.65454 7.83535 34.077 27.3802 0 3
108 1 2.39358 5.74425 38.8689 28.9421 0 2
387 1 2.40109 5.79846 -42.6676 32.4864 0 3
408 1 2.99851 11.2929 -38.6221 29.1974 0 3
497 1 2.20577 4.49542 -28.4162 31.8432 0 4
319 1 3.03776 11.7422 -23.3837 31.48 0 4
107 1 2.87596 9.96405 -17.2866 30.0923 0 3
478 1 2.29681 5.07534 -7.71124 29.9994 0 4
331 1 3.04808 11.8623 1.03166 30.0346 0 5
357 1 3.07621 12.1938 6.33597 32.4957 0 4
142 1 3.07759 12.2101 16.2727 30.1248 0 4
391 1 2.24686 4.75137 42.7021 32.2478 0 2
28 1 2.68168 8.07813 -46.0079 36.2141 0 4
239 1 2.67896 8.05359 -37.21 34.3015 0 4
61 1 2.37391 5.60376 -32.6106 32.9857 0 4
343 1 2.16965 4.27818 -26.5379 35.6624 0 3
294 1 2.42002 5.93669 -20.5523 35.7367 0 4
163 1 2.79476 9.14367 -15.5184 35.2462 0 5
328 1 2.45181 6.17372 -11.1524 32.8782 0 4
247 1 2.97943 11.0787 -3.84334 33.2843 0 4
253 1 2.34101 5.37398 0.728472 35.5354 0 2
341 1 2.69542 8.2029 11.1734 35.2386 0 3
117 1 2.38347 5.67176 16.0356 35.4291 0 3
116 1 2.58357 7.22349 20.6244 33.514 0 4
334 1 2.38049 5.65053 25.4519 33.4873 0 4
111 1 2.36648 5.55133 30.0285 33.4628 0 4
278 1 3.00915 11.4135 35.1423 32.7887 0 5
130 1 3.03831 11.7486 39.7996 36.2724 0 4
392 1 2.56875 7.09994 45.8785 35.6537 0 3
214 1 2.39895 5.78297 -49.5999 39.5865 0 3
94 1 2.23753 4.69238 -41.3334 36.6014 0 4
296 1 2.34524 5.40318 -35.1799 38.4959 0 4
100 1 2.36767 5.55971 -30.7802 37.0936 0 4
7 1 2.775 8.95113 -23.7945 39.6331 0 4
481 1 2.52504 6.74366 -18.0732 39.6678 0 5
155 1 2.77239 8.92593 -12.8073 39.8906 0 5
90 1 2.91019 10.3241 -8.12238 37.0352 0 5
428 1 2.16253 4.23618 -3.68186 39.1069 0 2
450 1 2.84636 9.65956 4.97888 38.098 0 5
421 1 2.5976 7.34187 19.6673 38.4581 0 5
169 1 2.5334 6.81079 24.4674 38.2299 0 4
323 1 2.71999 8.4293 29.4083 38.3463 0 4
500 1 2.86006 9.79968 34.6973 38.5919 0 5
128 1 2.63384 7.65348 49.2693 39.3796 0 4
431 1 2.35319 5.45836 -52.9116 42.6982 0 3
488 1 2.53645 6.83547 -45.0598 41.088 0 5
493 1 2.94318 10.6792 -39.6908 41.1442 0 5
251 1 2.61939 7.52818 -34.6578 43.0715 0 5
80 1 2.42663 5.98546 -29.8944 41.5612 0 4
147 1 2.16865 4.27223 -15.8677 43.4462 0 5
140 1 2.44675 6.13563 -8.25291 42.2428 0 4
272 1 2.73718 8.59007 0.532832 41.2469 0 5
19 1 2.51775 6.68542 9.63807 40.144 0 5
293 1 2.99297 11.2304 14.8522 40.7822 0 3
280 1 2.81786 9.37232 25.4338 43.4157 0 3
126 1 2.58884 7.26785 30.5128 43.4227 0 5
427 1 2.19344 4.42047 34.9687 43.4638 0 5
256 1 2.44129 6.09461 38.9401 41.7155 0 4
448 1 2.99304 11.2312 43.9073 40.2869 0 6
495 1 2.29873 5.0881 52.6468 42.6279 0 2
400 1 2.37168 5.58803 -56.1112 46.0046 0 4
292 1 2.3235 5.25434 -51.6842 46.9278 0 5
344 1 2.2733 4.92107 -47.7901 44.8536 0 3
78 1 2.1819 4.35105 -43.4392 45.2474 0 4
180 1 3.06023 12.0046 -38.7055 46.7748 0 5
415 1 3.09093 12.3696 -30.9288 46.8643 0 5
153 1 2.69928 8.23816 -25.9642 44.5258 0 5
436 1 3.02024 11.5402 -20.6282 44.3971 0 6
417 1 2.39526 5.75638 -12.2481 45.4422 0 3
413 1 2.48704 6.44376 -3.78705 44.1138 0 4
485 1 2.69041 8.15725 0.667533 46.5867 0 5
338 1 3.07747 12.2087 5.5684 43.9154 0 5
73 1 2.35811 5.49266 10.706 44.8135 0 4
209 1 2.72181 8.44618 15.3261 46.2624 0 5
144 1 2.9139 10.3637 20.0302 43.7747 0 4
333 1 2.38158 5.65831 37.7106 46.9215 0 4
248 1 2.98315 11.1202 42.5237 45.6137 0 6
276 1 2.73844 8.60202 47.7914 44.2777 0 5
332 1 2.18909 4.3942 55.7864 45.4711 0 3
412 1 2.21623 4.55966 -59.2793 49.0308 0 3
306 1 2.21597 4.55806 -54.6137 50.2399 0 4
179 1 2.78457 9.04407 -45.5959 49.471 0 4
394 1 2.67609 8.02771 -34.9865 50.6927 0 4
139 1 2.31269 5.18133 -25.7994 49.2921 0 4
134 1 2.5542 6.97995 -21.0646 49.9228 0 4
297 1 2.51206 6.64016 -16.5123 47.9115 0 5
53 1 2.68028 8.06546 -12.097 50.3859 0 5
60 1 2.68765 8.13222 -7.89849 47.2157 0 5
335 1 2.78131 9.01232 -3.54385 49.7771 0 4
267 1 3.11338 12.6411 6.69863 50.0456 0 2
211 1 2.3706 5.58035 11.7407 49.3975 0 5
133 1 2.37117 5.58442 19.3811 48.9267 0 5
457 1 2.45523 6.19962 23.8275 49.1739 0 2
98 1 2.5331 6.80842 28.288 47.9736 0 4
506 1 2.65419 7.8322 33.122 47.8201 0 6
21 1 2.64639 7.76338 46.5368 49.3845 0 5
165 1 2.7056 8.29619 51.609 47.7042 0 5
135 1 2.16067 4.22528 58.9378 48.04 0 3
263 1 2.43227 6.02733 -62.3764 52.2314 0 4
229 1 2.37246 5.59353 -57.8201 53.2683 0 4
216 1 2.35867 5.49652 -50.2335 51.0524 0 5
71 1 2.74179 8.63362 -40.8534 51.973 0 4
498 1 3.09823 12.4574 -29.8255 52.6194 0 6
148 1 2.4187 5.92703 -24.7383 53.7171 0 4
502 1 2.37105 5.58352 -16.3895 52.6341 0 4
67 1 2.7346 8.56588 -7.66719 53.0395 0 5
459 1 3.11183 12.6222 1.30242 52.3064 0 6
451 1 2.73089 8.53105 15.7677 52.0671 0 5
453 1 2.89712 10.1856 20.7822 53.9964 0 3
503 1 2.63444 7.65868 30.8024 52.4072 0 4
118 1 2.67995 8.06249 35.8422 52.2497 0 4
30 1 3.09656 12.4373 41.1651 51.0784 0 6
238 1 3.00094 11.3204 50.4454 53.1905 0 6
347 1 3.00672 11.3859 55.6933 51.3123 0 5
366 1 2.49396 6.49767 61.5352 51.5017 0 3
202 1 2.29274 5.04838 -65.7631 55.3014 0 3
132 1 2.48373 6.41806 -61.6528 56.8139 0 5
32 1 2.71305 8.3649 -52.3962 55.3051 0 4
379 1 2.75963 8.80319 -47.025 54.7916 0 4
190 1 3.09919 12.4691 -42.078 57.5295 0 6
490 1 2.91132 10.3361 -36.7464 55.6563 0 5
46 1 2.18285 4.35674 -32.1961 57.0413 0 4
146 1 2.6983 8.22927 -27.5858 57.7287 0 5
87 1 2.43603 6.05534 -20.4329 54.8101 0 4
192 1 2.5367 6.83744 -16.5967 57.4096 0 5
70 1 2.74062 8.62254 -11.6662 56.4916 0 3
138 1 2.24572 4.74412 -7.03483 57.8032 0 5
369 1 2.45809 6.22134 -3.18286 55.3415 0 4
439 1 2.72865 8.51009 1.12996 57.9816 0 5
345 1 2.52357 6.73187 5.62383 55.5842 0 4
277 1 3.07124 12.1347 10.8663 54.7025 0 5
150 1 2.57264 7.13227 15.8653 57.1324 0 4
383 1 2.75935 8.80057 26.1585 54.483 0 3
259 1 3.08146 12.2563 34.3494 57.6166 0 3
191 1 2.71641 8.39601 39.8105 56.5694 0 4
474 1 3.01794 11.5138 45.1494 55.1563 0 5
228 1 2.46171 6.24883 54.6888 56.4541 0 5
231 1 2.16302 4.23905 58.9055 55.0115 0 4
62 1 3.14928 13.0835 64.6274 55.8234 0 3
462 1 2.30892 5.15605 -71.4623 61.1595 0 3
254 1 2.21296 4.53948 -68.6903 58.2109 0 3
370 1 2.26686 4.87933 -64.9708 60.0674 0 4
362 1 2.33745 5.3495 -60.8568 61.2894 0 5
411 1 2.87536 9.95789 -56.9 58.236 0 6
188 1 2.96193 10.8846 -52.0721 60.7731 0 5
499 1 2.73803 8.59811 -46.7874 60.3842 0 4
282 1 2.65128 7.80649 -37.5952 61.0087 0 4
6 1 2.54379 6.89495 -32.6651 61.4035 0 4
55 1 2.41419 5.8939 -23.1384 59.8456 0 3
317 1 2.40206 5.80547 -18.8868 61.6866 0 5
43 1 2.31769 5.21501 -14.3412 61.3693 0 4
131 1 2.51322 6.64937 -3.26126 60.325 0 4
159 1 3.071 12.1319 5.81159 61.0539 0 5
91 1 3.12717 12.8098 11.7578 60.8018 0 5
101 1 2.80686 9.26294 19.0556 61.2226 0 4
264 1 2.71509 8.38378 24.1111 59.3561 0 3
45 1 2.61717 7.50907 44.509 60.3505 0 4
217 1 3.14851 13.0738 49.9003 59.0276 0 6
302 1 2.5228 6.72569 54.9811 61.1877 0 4
82 1 2.53816 6.84927 59.4605 59.3424 0 4
454 1 2.58785 7.25946 68.9552 59.1413 0 3
252 1 2.72036 8.43273 -74.3145 64.6819 0 3
283 1 2.7867 9.06486 -67.6326 64.1616 0 4
127 1 2.66789 7.95417 -56.8089 63.6271 0 5
430 1 2.84984 9.69501 -42.3098 63.342 0 6
29 1 3.00825 11.4033 -27.6344 63.1813 0 5
290 1 2.40033 5.79299 -22.6425 64.598 0 5
13 1 2.79308 9.12721 -9.45888 62.0281 0 4
235 1 2.19554 4.43317 -5.21153 64.3423 0 4
461 1 3.09772 12.4514 0.668637 64.1373 0 4
149 1 2.71902 8.42023 26.1825 64.2024 0 4
201 1 2.81814 9.37508 30.9681 62.0652 0 4
326 1 2.65215 7.81415 35.6338 64.7914 0 3
1 1 2.49448 6.50171 39.66 61.7236 0 3
308 1 3.1368 12.9285 49.5954 65.0266 0 5
243 1 2.51462 6.66049 59.1909 64.2513 0 5
106 1 3.09067 12.3665 64.1233 61.9013 0 5
160 1 2.82216 9.41524 72.4097 62.88 0 3
175 1 3.06647 12.0783 -77.8234 68.7149 0 3
195 1 2.78147 9.01392 -71.0794 68.7557 0 4
40 1 2.1894 4.39607 -66.4238 68.7599 0 5
300 1 2.93248 10.5631 -62.3716 66.0539 0 5
42 1 3.08116 12.2527 -52.1974 66.5451 0 5
475 1 2.5259 6.75054 -46.997 65.4732 0 5
75 1 2.49231 6.48475 -43.368 68.5606 0 5
422 1 3.02089 11.5476 -38.0816 67.0814 0 5
420 1 2.86122 9.81165 -32.4114 66.498 0 5
27 1 2.97815 11.0644 -27.4068 68.9315 0 5
496 1 2.38397 5.67531 -18.3966 66.3448 0 5
97 1 2.79309 9.12732 -13.4205 66.1023 0 4
48 1 2.30287 5.11561 -8.61985 66.9525 0 4
161 1 2.78827 9.08014 -2.95862 68.5653 0 4
26 1 3.01543 11.4852 8.92501 66.2248 0 4
265 1 3.10778 12.573 15.281 65.675 0 5
35 1 3.0054 11.3709 21.1471 66.4861 0 5
151 1 2.54666 6.91837 30.8374 67.3231 0 3
74 1 2.90794 10.3002 43.7502 65.4004 0 3
403 1 2.29967 5.0943 54.7344 65.6862 0 5
86 1 2.33616 5.3407 62.9677 67.2586 0 2
342 1 2.845 9.64569 67.965 65.9684 0 5
199 1 2.98905 11.1863 76.1338 66.8816 0 4
409 1 2.21646 4.56109 -81.8605 71.4958 0 3
16 1 3.06309 12.0383 -62.5958 71.9722 0 6
275 1 3.05743 11.9718 -57.4584 69.0845 0 6
203 1 2.44923 6.15426 -53.2815 72.5091 0 4
473 1 2.95082 10.7626 -48.2997 70.7046 0 6
2 1 2.88025 10.0087 -40.088 72.4908 0 6
315 1 3.0931 12.3956 -34.4145 71.8774 0 5
468 1 2.41604 5.90744 -22.1735 69.2717 0 5
385 1 2.52317 6.72863 -17.7937 71.1211 0 4
309 1 2.73852 8.60277 -12.7379 71.341 0 4
187 1 2.72925 8.51564 -7.42718 71.5882 0 5
316 1 2.93117 10.549 3.78759 69.186 0 4
443 1 2.93565 10.5974 12.5768 70.8666 0 4
24 1 2.32858 5.28886 17.7926 70.4709 0 4
240 1 2.9052 10.2711 25.9876 69.5861 0 5
418 1 2.77752 8.97549 35.2542 70.1385 0 4
204 1 3.05086 11.8947 40.9845 70.1674 0 4
477 1 2.73277 8.54862 47.1598 70.0803 0 3
273 1 2.82891 9.48305 52.643 70.1174 0 6
440 1 2.63902 7.69864 57.9304 69.1014 0 5
95 1 2.9875 11.169 62.0063 72.5417 0 5
507 1 2.84038 9.59879 67.4036 71.3521 0 4
72 1 2.1596 4.21897 71.6326 68.9938 0 4
288 1 2.85089 9.70578 80.1657 70.6273 0 4
219 1 2.72173 8.44544 -84.5966 75.1065 0 3
359 1 2.32246 5.24724 -78.2513 73.8809 0 4
434 1 2.86974 9.89957 -73.3683 73.5869 0 5
355 1 2.65527 7.8418 -67.9978 73.1615 0 5
479 1 2.16223 4.23442 -58.0007 73.9878 0 4
356 1 2.67687 8.03471 -49.6741 76.1077 0 5
437 1 2.48796 6.4509 -44.9072 74.4948 0 5
186 1 2.15209 4.17516 -29.6553 73.4733 0 4
104 1 2.90952 10.317 -24.7349 73.8148 0 6
234 1 2.40146 5.80115 -20.0329 75.4368 0 5
381 1 2.90967 10.3186 -10.4602 76.2116 0 5
137 1 2.58103 7.20226 -5.14125 76.0996 0 5
460 1 3.00688 11.3877 -0.300505 73.4639 0 4
606 1 2.70325 8.27463 6.20102 74.1816 0 3
269 1 2.51821 6.68906 11.0484 75.8905 0 4
395 1 2.91471 10.3723 16.415 75.4041 0 4
17 1 3.11536 12.6652 22.2635 74.0339 0 3
110 1 2.60722 7.42372 28.4257 74.3082 0 3
244 1 2.74061 8.62246 33.4977 75.2602 0 4
56 1 2.90555 10.2748 38.9201 75.3014 0 5
364 1 3.04646 11.8433 44.6566 74.9846 0 5
389 1 2.74502 8.66415 50.2455 74.9199 0 3
396 1 3.11189 12.6229 56.3862 74.5909 0 5
435 1 2.58269 7.21619 70.4378 75.5283 0 5
242 1 3.03234 11.6794 74.9866 72.6459 0 5
350 1 2.18516 4.37056 83.8738 73.3033 0 3
102 1 2.39198 5.73275 -88.1008 78.2457 0 3
193 1 2.27739 4.94767 -80.3475 77.5828 0 5
262 1 2.99218 11.2216 -75.3326 78.9454 0 5
489 1 2.5831 7.21962 -70.0874 77.7159 0 5
5 1 3.1063 12.5551 -61.2658 77.8126 0 4
59 1 2.79251 9.12163 -54.8784 77.4042 0 5
255 1 2.19056 4.40305 -45.5917 79.0138 0 2
386 1 2.247 4.75222 -41.4566 77.2378 0 4
299 1 2.18868 4.3917 -37.2603 76.5844 0 3
349 1 2.4946 6.50266 -32.8116 77.028 0 4
213 1 2.45025 6.16196 -28.145 77.6127 0 5
33 1 2.17965 4.33756 -23.3264 78.5617 0 4
358 1 2.52148 6.71512 -15.5665 76.4453 0 3
1115 1 2.38838 5.7069 -2.34774 79.8196 0 4
630 1 2.86021 9.80127 2.57613 78.3259 0 5
158 1 2.99437 11.2462 20.93 79.7829 0 5
469 1 2.91259 10.3496 26.5759 79.3192 0 5
20 1 2.39144 5.72887 31.673 79.8705 0 4
1100 1 2.6447 7.74849 36.5228 79.8734 0 5
486 1 3.06002 12.0022 53.2082 79.7373 0 5
484 1 2.27577 4.93711 60.9345 77.4159 0 5
105 1 2.63467 7.6607 65.6361 76.7298 0 4
136 1 2.71274 8.36202 74.7777 78.1318 0 5
406 1 3.02821 11.6317 80.0862 76.4798 0 4
236 1 2.95103 10.7649 86.486 77.1683 0 3
37 1 2.39073 5.72377 -91.4076 81.0791 0 3
465 1 2.36582 5.54666 -83.8663 80.1842 0 4
304 1 2.40253 5.80891 -79.506 81.9728 0 4
183 1 2.95771 10.8382 -71.0501 82.9686 0 5
50 1 2.49201 6.48244 -66.0264 80.3563 0 3
157 1 2.18601 4.37565 -61.7468 82.8433 0 4
268 1 2.90499 10.2688 -56.8199 82.7103 0 4
152 1 2.99481 11.2511 -51.1979 81.4801 0 5
401 1 2.92542 10.487 -41.0358 82.0515 0 5
220 1 2.50918 6.61736 -35.8602 81.0719 0 2
419 1 2.52581 6.7498 -31.0204 81.551 0 5
8 1 2.3193 5.22585 -26.3855 81.6635 0 5
376 1 2.49927 6.53928 -19.0853 80.2276 0 4
804 1 3.13349 12.8876 -13.7849 81.7377 0 4
800 1 3.08024 12.2417 -7.72039 81.1338 0 4
995 1 2.17335 4.30011 0.615412 82.8718 0 4
54 1 2.21613 4.55902 6.93544 80.4257 0 3
212 1 2.19448 4.42675 11.0354 80.3871 0 4
286 1 2.71421 8.37566 15.6183 80.8712 0 4
313 1 2.98993 11.1962 42.0376 80.1212 0 6
426 1 2.6947 8.19635 47.5877 79.9294 0 2
555 1 2.65471 7.8368 58.5466 81.3912 0 5
399 1 2.6221 7.55158 63.626 81.3777 0 5
69 1 2.16885 4.27343 69.6409 80.0468 0 3
814 1 2.98166 11.1036 73.4719 83.3729 0 6
441 1 2.53948 6.85996 78.5311 81.642 0 5
1085 1 2.17087 4.28536 83.4108 80.9262 0 2
390 1 2.70054 8.24972 90.2716 80.7683 0 3
166 1 2.21813 4.57141 -94.3554 83.9573 0 3
445 1 3.08782 12.3324 -87.2504 84.1437 0 5
818 1 3.1054 12.5441 -81.8567 86.609 0 5
922 1 3.0312 11.6663 -75.9191 86.1041 0 3
839 1 3.03697 11.7331 -65.9053 85.6817 0 6
456 1 2.28367 4.98873 -51.6348 86.6056 0 4
1015 1 2.75834 8.79089 -46.286 83.8106 0 5
1068 1 2.36815 5.56308 -42.5297 86.8841 0 5
588 1 2.7634 8.83934 -37.5923 86.307 0 4
996 1 2.73609 8.57986 -32.3379 86.4941 0 5
1135 1 2.70093 8.2533 -27.1625 86.4106 0 5
257 1 2.62291 7.55859 -22.4546 84.0355 0 5
649 1 2.70884 8.32607 -18.1246 86.5716 0 3
946 1 2.21773 4.56892 -8.01736 86.8188 0 3
773 1 2.82844 9.47825 -3.64749 84.8526 0 6
983 1 3.06465 12.0568 4.91972 85.0502 0 5
991 1 2.44889 6.15175 10.114 84.7918 0 4
881 1 2.36143 5.51588 14.5187 85.6917 0 4
1043 1 2.87277 9.93098 19.4162 85.2279 0 4
1053 1 2.38125 5.65589 24.2096 84.0126 0 4
562 1 2.97728 11.0548 29.24 84.4558 0 5
298 1 2.43145 6.0212 34.2149 83.9936 0 4
1006 1 2.48662 6.44046 38.9025 84.2999 0 5
178 1 2.85311 9.72849 44.6597 85.1197 0 3
99 1 2.90627 10.2825 50.1087 84.9484 0 3
1130 1 2.43403 6.04039 55.1303 84.698 0 4
9 1 2.82593 9.45305 61.1881 86.1052 0 4
109 1 2.97322 11.0096 67.8581 84.7182 0 5
972 1 2.43581 6.0537 77.7099 86.4667 0 4
289 1 2.25612 4.81032 81.8835 84.7879 0 5
346 1 3.08605 12.3111 87.0145 85.4546 0 3
85 1 2.74005 8.61712 93.8946 84.2337 0 3
197 1 2.70906 8.32804 -96.7208 87.7289 0 4
483 1 2.61549 7.49456 -91.4978 87.5431 0 5
384 1 3.12656 12.8024 -86.6259 90.1774 0 5
689 1 2.49297 6.48995 -70.6885 88.301 0 4
658 1 2.61757 7.51245 -60.5704 87.3065 0 5
824 1 2.15365 4.18423 -55.8889 87.6394 0 4
143 1 3.12207 12.7473 -47.1347 89.4914 0 5
429 1 2.52213 6.7203 -22.9563 88.9759 0 4
675 1 3.01854 11.5207 -12.8333 87.7445 0 4
928 1 2.76334 8.83881 -4.7897 90.3109 0 5
23 1 2.99439 11.2464 0.36996 88.5738 0 5
938 1 2.29985 5.0955 8.03655 88.9743 0 4
621 1 3.0634 12.042 12.6738 90.6564 0 5
858 1 2.71843 8.41475 17.9511 90.3831 0 5
1031 1 2.54873 6.93526 22.7379 89.7441 0 3
547 1 2.35941 5.50172 27.1101 88.9738 0 4
761 1 2.64852 7.78209 31.6818 89.941 0 4
891 1 2.45985 6.23465 36.1416 88.2699 0 5
940 1 2.69606 8.20874 40.9288 88.8223 0 5
666 1 2.85403 9.73787 51.6313 90.4328 0 5
622 1 2.71695 8.40101 56.8204 89.2627 0 5
566 1 2.66869 7.96131 65.3334 89.5395 0 4
616 1 3.06216 12.0274 71.9876 88.951 0 5
1132 1 2.77734 8.97378 81.9127 89.6037 0 4
605 1 2.99104 11.2087 91.5617 89.2576 0 4
279 1 2.80496 9.2442 97.3875 88.0032 0 3
505 1 2.39192 5.73233 -103.936 93.9623 0 3
36 1 2.72946 8.51765 -100.056 91.4074 0 3
926 1 3.00448 11.3605 -93.6525 92.4433 0 4
963 1 2.63012 7.62104 -82.8307 94.3475 0 4
226 1 2.74478 8.66182 -78.6338 91.1278 0 5
607 1 2.36136 5.51538 -73.8544 91.8553 0 4
560 1 2.37683 5.62449 -69.5058 92.9447 0 5
1089 1 3.10433 12.5311 -64.4538 91.3776 0 5
1087 1 2.9698 10.9716 -58.5277 92.3346 0 5
1081 1 3.08672 12.3191 -52.7442 91.751 0 5
721 1 2.80088 9.20394 -40.3828 91.2466 0 4
1052 1 2.669 7.96406 -35.1011 90.984 0 5
539 1 2.93482 10.5884 -29.5736 91.4079 0 4
787 1 3.13422 12.8967 -23.8516 94.3594 0 3
1086 1 2.2886 5.0211 -19.1005 91.3504 0 4
84 1 2.43819 6.07142 -14.8235 92.7283 0 5
368 1 3.07805 12.2156 -9.60576 93.1986 0 4
168 1 2.17419 4.30511 -0.398615 93.506 0 4
215 1 2.94182 10.6644 4.47033 92.424 0 5
404 1 2.30995 5.16292 9.10838 94.2926 0 4
582 1 2.69094 8.16206 26.2286 93.7755 0 4
590 1 2.75234 8.73367 35.6851 93.439 0 5
774 1 2.37441 5.6073 40.6072 93.5715 0 4
637 1 3.06228 12.0288 46.0156 90.885 0 4
550 1 2.75187 8.72915 55.4565 94.3534 0 4
644 1 2.65739 7.86054 60.9632 92.2248 0 4
969 1 2.27689 4.94444 68.7123 92.9057 0 5
511 1 2.64186 7.72358 73.2437 94.3252 0 5
871 1 2.52875 6.77343 77.0059 91.1557 0 5
974 1 2.72953 8.5183 86.6918 91.9396 0 4
388 1 2.76087 8.81512 95.504 93.1361 0 5
156 1 2.76123 8.81851 100.815 91.8759 0 4
103 1 2.42101 5.94401 -107.091 96.9576 0 3
577 1 2.73293 8.55014 -97.5773 96.2313 0 4
627 1 2.89149 10.1264 -88.752 95.4919 0 4
661 1 2.62107 7.54268 -78.0055 96.2325 0 4
572 1 2.20113 4.4671 -72.6673 96.2457 0 2
541 1 2.91583 10.3843 -67.0028 97.386 0 4
682 1 2.39706 5.76935 -62.0884 96.0388 0 5
691 1 2.42777 5.99394 -57.7165 97.6261 0 5
684 1 2.9551 10.8095 -52.498 97.8266 0 3
892 1 2.34338 5.39036 -48.3569 94.6388 0 5
1080 1 2.50505 6.58471 -43.661 95.1921 0 4
1121 1 2.43443 6.04339 -38.4112 95.8681 0 4
961 1 2.80957 9.28986 -33.3645 95.9482 0 4
526 1 2.34274 5.38596 -28.5805 96.4989 0 5
1050 1 2.84034 9.59837 -18.4875 96.2589 0 5
952 1 2.88794 10.0891 -13.3145 97.8143 0 6
38 1 2.66029 7.88631 -4.52445 95.5438 0 5
897 1 2.37976 5.64528 2.21833 96.9834 0 5
720 1 2.26266 4.85231 15.9138 94.7829 0 5
66 1 2.87849 9.99039 21.0009 94.7681 0 6
551 1 2.33162 5.30963 30.9264 94.644 0 5
1102 1 2.40078 5.79625 38.7836 97.7222 0 4
904 1 2.42266 5.95615 44.4505 96.0111 0 3
519 1 2.25606 4.80998 49.3684 95.0002 0 2
524 1 3.14272 13.0019 60.0039 97.8296 0 6
1057 1 2.48537 6.43079 64.8155 95.2941 0 5
878 1 2.91483 10.3736 69.2898 97.9259 0 5
948 1 3.02807 11.6302 80.6234 95.1317 0 4
864 1 2.21787 4.56982 85.4631 96.6123 0 4
875 1 2.39732 5.77123 90.7709 94.8496 0 3
174 1 2.88463 10.0544 99.1891 97.0787 0 4
377 1 2.82688 9.46264 104.806 95.236 0 3
96 1 2.36777 5.56043 -110.051 100.073 0 3
748 1 2.95028 10.7566 -102.302 98.8995 0 5
656 1 2.41026 5.86517 -95.3953 100.723 0 4
599 1 3.08564 12.3062 -90.1159 101.018 0 3
643 1 2.59489 7.3189 -84.7347 99.0863 0 3
1077 1 2.39432 5.74955 -79.9874 100.643 0 4
740 1 2.27288 4.91836 -75.4097 100.214 0 4
695 1 2.31846 5.22019 -70.9875 100.498 0 4
862 1 2.66992 7.97232 -61.653 100.806 0 5
701 1 3.12605 12.796 -46.8452 99.6823 0 6
528 1 2.56687 7.08438 -41.4235 99.6603 0 5
1019 1 2.95167 10.7719 -36.2404 100.706 0 6
310 1 2.79071 9.10405 -30.6848 101.072 0 4
444 1 2.33773 5.35145 -25.7422 99.9939 0 4
1070 1 2.42263 5.95594 -21.1926 100.433 0 4
719 1 2.81071 9.3011 -8.15535 99.2985 0 4
609 1 2.1511 4.16937 -1.47011 99.0181 0 4
89 1 2.81792 9.37295 6.79971 98.6105 0 5
405 1 2.9949 11.2522 12.2748 98.4012 0 4
655 1 3.1423 12.9966 17.9451 99.6846 0 6
1105 1 2.46377 6.26454 23.2658 99.4292 0 4
751 1 2.74229 8.63828 28.1873 98.7666 0 5
762 1 3.04264 11.7989 33.8038 98.9019 0 5
1038 1 2.18687 4.38084 42.3309 100.107 0 3
715 1 3.07632 12.1951 47.3286 100.396 0 5
949 1 2.73598 8.57885 52.6734 98.8437 0 4
676 1 2.20889 4.51449 64.7365 99.9637 0 5
83 1 2.73903 8.60752 75.1416 99.1056 0 4
931 1 2.31908 5.22438 79.8989 100.23 0 4
544 1 2.73171 8.5387 84.5444 101.416 0 4
198 1 2.49628 6.51582 89.0853 99.3356 0 5
847 1 2.88577 10.0663 94.1833 99.3595 0 3
1136 1 2.78053 9.00473 103.312 100.418 0 5
494 1 2.76163 8.82234 108.546 98.9536 0 4
129 1 2.2931 5.05074 -113.124 102.867 0 3
64 1 3.08592 12.3096 -105.95 103.451 0 3
463 1 2.90957 10.3175 -99.4706 103.812 0 4
989 1 2.39896 5.78307 -93.739 105.211 0 2
1001 1 2.96991 10.9728 -83.5897 104.387 0 4
537 1 2.76452 8.85013 -77.159 104.839 0 4
688 1 2.84378 9.63333 -66.4937 102.974 0 5
978 1 3.03108 11.6649 -56.585 102.881 0 5
735 1 2.83611 9.55556 -51.0886 103.523 0 4
1046 1 3.06969 12.1163 -40.1225 105.086 0 5
629 1 2.37107 5.58367 -26.991 104.456 0 4
981 1 2.39106 5.7261 -22.4033 104.794 0 4
662 1 2.59157 7.29083 -16.5662 102.114 0 4
1093 1 2.28854 5.02071 -11.7861 102.713 0 4
692 1 2.45847 6.22422 -4.20957 102.348 0 4
781 1 3.14872 13.0765 2.47633 102.395 0 6
200 1 3.0446 11.8217 8.33121 104.048 0 5
917 1 3.05821 11.981 14.2305 104.446 0 4
1005 1 3.1154 12.6658 20.2917 105.259 0 5
699 1 2.66577 7.93518 25.7424 103.678 0 4
853 1 2.48769 6.44878 30.7043 103.195 0 5
1024 1 2.60604 7.41361 38.2488 102.676 0 2
973 1 2.81726 9.36632 43.4734 104.779 0 4
850 1 3.0543 11.9351 51.5856 104.463 0 4
677 1 2.47086 6.31875 56.5786 101.987 0 4
610 1 2.56486 7.06776 61.376 103.331 0 5
1079 1 2.31039 5.1659 66.136 104.13 0 5
877 1 3.01903 11.5263 71.3019 103.196 0 5
167 1 3.0257 11.6029 77.0158 104.417 0 5
1041 1 2.53092 6.79082 90.778 103.965 0 4
287 1 2.58305 7.21917 95.7628 104.454 0 4
651 1 2.83137 9.50777 107.053 104.176 0 4
339 1 2.22687 4.62565 112.103 101.99 0 2
327 1 2.19048 4.40255 115.125 104.755 0 3
34 1 2.19296 4.41754 -118.55 108.411 0 3
122 1 2.1666 4.26016 -116.07 105.521 0 3
330 1 3.02275 11.569 -111.739 107.82 0 5
442 1 2.20004 4.46046 -106.768 108.451 0 5
834 1 2.36867 5.56678 -102.339 107.961 0 4
936 1 2.75601 8.76865 -88.7408 106.405 0 5
1014 1 3.06643 12.0778 -71.5097 105.723 0 5
633 1 2.62262 7.55603 -65.6022 108.217 0 3
959 1 2.67111 7.98295 -61.0809 106.003 0 4
879 1 2.64926 7.78869 -55.5703 108.334 0 3
1112 1 2.88519 10.0604 -45.9348 105.456 0 5
1114 1 3.06179 12.023 -33.8637 106.027 0 3
295 1 2.17129 4.28785 -29.3195 108.21 0 4
472 1 2.75612 8.76966 -18.0447 107.166 0 4
815 1 2.4734 6.33832 -12.9024 107.232 0 5
788 1 2.97421 11.0205 -7.64847 106.257 0 4
567 1 2.96618 10.9315 -1.46759 106.753 0 5
224 1 2.90242 10.2416 4.14896 108.065 0 5
1011 1 2.90627 10.2824 28.8934 108.081 0 5
571 1 2.35406 5.46436 34.4637 105.869 0 4
1088 1 3.02464 11.5907 39.0138 108.352 0 3
837 1 2.27808 4.95217 56.3328 106.487 0 4
712 1 2.85219 9.71904 63.3143 108.351 0 5
1126 1 2.9813 11.0996 69.0447 108.439 0 5
552 1 2.56119 7.0374 81.6082 107.347 0 4
944 1 2.47451 6.34683 86.3641 106.155 0 5
258 1 3.10394 12.5265 101.191 105.674 0 4
576 1 2.89801 10.195 111.204 107.7 0 4
397 1 2.72499 8.47589 117.726 108.547 0 2
221 1 2.63491 7.66278 -121.301 111.709 0 3
625 1 2.32696 5.27783 -115.423 111.653 0 3
885 1 2.27693 4.94465 -104.308 111.905 0 5
170 1 2.92789 10.5136 -97.3347 109.185 0 4
905 1 2.55347 6.97402 -92.1049 110.189 0 4
270 1 3.14365 13.0135 -86.0689 111.453 0 4
1138 1 2.94909 10.7437 -80.552 109.257 0 5
894 1 2.52207 6.71982 -75.144 109.747 0 4
832 1 3.11116 12.6141 -69.8848 111.566 0 5
534 1 2.29555 5.06695 -61.0656 110.952 0 1
654 1 2.75168 8.72732 -50.2666 108.972 0 5
975 1 2.6484 7.78106 -43.0464 109.901 0 5
640 1 2.89906 10.2061 -37.737 110.434 0 5
540 1 2.69438 8.19343 -32.4897 111.687 0 4
176 1 2.68721 8.12815 -24.7501 109.021 0 4
1094 1 2.75382 8.74775 -20.7065 112.282 0 4
641 1 2.91281 10.352 -15.2932 111.928 0 6
821 1 2.92084 10.4378 -9.75436 111.578 0 6
311 1 2.48473 6.42577 -4.69493 110.83 0 5
1044 1 2.76075 8.8139 0.217785 112.055 0 5
354 1 3.13663 12.9265 10.1749 109.802 0 4
365 1 2.43693 6.06205 16.5762 109.234 0 4
583 1 2.99117 11.2102 23.5359 110.21 0 5
886 1 2.76827 8.88612 33.7194 110.798 0 4
710 1 2.39547 5.75786 42.4626 112.323 0 4
706 1 3.04546 11.8317 46.8275 109.372 0 3
598 1 3.10274 12.5119 52.6825 110.329 0 4
984 1 2.57355 7.13983 58.4993 110.529 0 4
1067 1 2.86207 9.82042 75.3587 109.781 0 4
1042 1 2.52792 6.76673 80.1 112.152 0 3
797 1 2.60096 7.37035 85.158 111.025 0 5
612 1 3.04307 11.8039 90.5602 109.499 0 6
967 1 2.90122 10.229 96.3624 109.787 0 4
756 1 2.36199 5.51978 101.302 110.938 0 5
1022 1 2.37293 5.59686 105.452 108.955 0 4
227 1 2.35967 5.50353 108.683 112.136 0 5
1071 1 2.39203 5.73311 113.33 112.318 0 3
361 1 2.17207 4.29248 121.475 111.176 0 3
51 1 2.7954 9.14995 -124.71 115.261 0 3
997 1 2.63647 7.6764 -118.09 115.806 0 3
535 1 2.75565 8.76517 -109.092 112.682 0 5
285 1 2.87946 10.0005 -100.038 114.365 0 4
597 1 2.36236 5.52238 -95.0243 113.94 0 5
664 1 2.53301 6.80767 -90.4181 114.818 0 5
556 1 2.82259 9.41954 -82.1083 115.709 0 4
945 1 2.25604 4.80982 -77.8677 113.463 0 4
856 1 2.94052 10.6503 -73.6151 115.923 0 4
1104 1 2.66408 7.92014 -65.6945 115.313 0 3
898 1 2.80683 9.26271 -60.5015 116.153 0 4
790 1 2.22677 4.62503 -56.8965 112.887 0 3
568 1 3.14616 13.0445 -51.9422 114.561 0 5
744 1 2.32994 5.29814 -46.9356 112.73 0 4
845 1 2.61626 7.50121 -41.3977 114.747 0 3
620 1 3.08464 12.2943 -36.0503 116.068 0 6
667 1 2.32828 5.28685 -27.7897 112.787 0 4
393 1 2.22831 4.63465 -12.2052 115.895 0 4
49 1 2.90764 10.297 -5.92649 115.953 0 4
68 1 2.88508 10.0591 5.46444 113.516 0 6
521 1 2.39059 5.72271 10.2112 115.239 0 5
600 1 2.33365 5.32345 14.2859 113.261 0 4
855 1 2.68891 8.14366 19.1293 113.517 0 5
951 1 2.44916 6.15375 23.6167 115.587 0 5
525 1 2.53981 6.86268 27.974 113.263 0 5
803 1 2.8967 10.1812 37.8376 114.474 0 5
585 1 2.83999 9.59487 46.335 115.548 0 4
977 1 2.39904 5.78366 55.7783 114.527 0 5
954 1 2.99612 11.2659 60.7992 115.356 0 4
835 1 2.99558 11.2598 66.1337 113.448 0 5
755 1 2.57534 7.15473 71.41 113.221 0 5
1134 1 2.31508 5.19739 75.7544 114.78 0 3
1075 1 2.48455 6.42441 88.6801 114.648 0 5
899 1 2.38495 5.68232 93.4375 114.033 0 5
632 1 2.93519 10.5925 98.565 115.258 0 4
780 1 2.40429 5.82166 104.572 114.162 0 3
935 1 2.76932 8.89624 117.802 114.384 0 3
79 1 2.57292 7.13456 124.292 114.581 0 3
14 1 3.07825 12.218 -128.353 119.247 0 3
738 1 3.061 12.0137 -110.942 117.937 0 4
554 1 2.89494 10.1626 -105.255 116.716 0 6
1137 1 2.25865 4.82657 -96.6297 118.098 0 5
772 1 2.19934 4.45619 -92.4002 118.968 0 4
829 1 3.06904 12.1086 -86.7963 118.805 0 5
999 1 2.7063 8.30266 -77.9377 119.135 0 5
919 1 2.67366 8.00587 -69.2704 119.049 0 5
843 1 2.84948 9.69133 -55.7978 119.062 0 4
631 1 2.64708 7.76943 -45.6879 117.424 0 4
902 1 2.99569 11.261 -30.2923 117.385 0 3
703 1 2.80517 9.24625 -24.3076 116.283 0 4
1061 1 2.81386 9.33244 -17.7301 116.878 0 4
471 1 2.18646 4.37836 -13.8538 119.779 0 5
628 1 2.21447 4.54879 -9.59732 119.368 0 4
407 1 2.37933 5.64227 1.56224 116.89 0 4
470 1 2.67343 8.00378 6.69013 118.773 0 5
909 1 2.39982 5.78927 16.6034 117.731 0 4
865 1 2.35281 5.45565 20.9711 119.573 0 2
1003 1 2.32039 5.23324 27.5247 117.958 0 5
1047 1 2.97996 11.0846 32.3787 116.285 0 6
671 1 2.57004 7.11063 41.7814 118.152 0 4
737 1 2.9819 11.1062 51.5738 117.475 0 5
806 1 2.51997 6.70312 56.7697 119.154 0 5
758 1 2.76504 8.85504 66.1943 119.046 0 5
914 1 2.82661 9.45984 71.5994 118.416 0 4
587 1 2.57915 7.18651 78.5686 118.391 0 3
870 1 2.95317 10.7883 83.5635 116.279 0 5
1110 1 2.5745 7.14768 87.8433 119.595 0 4
538 1 2.55565 6.99188 92.7873 118.8 0 4
1128 1 2.53712 6.84091 102.839 118.614 0 4
929 1 2.49794 6.52881 110.508 116.369 0 3
595 1 3.03076 11.6611 114.856 119.393 0 3
732 1 2.19515 4.43078 120.955 117.908 0 4
301 1 2.51669 6.67695 127.745 117.877 0 3
941 1 2.16732 4.26441 -132.306 121.984 0 3
988 1 2.78326 9.03127 -122.408 120.099 0 2
697 1 2.55288 6.96912 -115.75 120.367 0 3
980 1 2.88821 10.092 -105.977 122.221 0 4
841 1 2.6793 8.05665 -100.957 120.058 0 4
846 1 2.84716 9.66775 -95.4665 122.972 0 4
1000 1 2.59632 7.33098 -90.1954 123.058 0 5
923 1 2.20565 4.49468 -82.1566 121.265 0 3
1048 1 2.42987 6.00946 -73.5608 121.725 0 3
591 1 3.04595 11.8374 -63.9878 120.841 0 5
1117 1 2.44275 6.10555 -59.1267 123.075 0 4
921 1 2.97491 11.0284 -50.2483 120.365 0 5
1073 1 2.4139 5.89179 -45.3753 122.372 0 5
1016 1 3.07601 12.1913 -40.3311 120.395 0 3
750 1 2.95642 10.8239 -34.4708 121.804 0 5
596 1 2.37053 5.57988 -26.3963 120.811 0 5
416 1 2.89233 10.1352 -21.3714 120.982 0 5
1023 1 2.25065 4.7754 -16.7591 122.887 0 4
260 1 2.63219 7.63905 -2.23786 119.982 0 5
337 1 2.39215 5.73399 2.52993 121.445 0 5
324 1 2.8601 9.80018 11.9653 119.953 0 5
113 1 2.95309 10.7875 16.7618 122.953 0 4
770 1 2.3549 5.47023 25.372 121.858 0 3
708 1 3.05882 11.9881 30.8526 122.049 0 4
888 1 3.07134 12.1359 36.6793 120.247 0 6
686 1 3.07787 12.2134 47.0015 121.404 0 3
745 1 3.04889 11.8717 53.0889 123.146 0 4
743 1 2.39155 5.72961 61.3678 120.458 0 5
574 1 2.65453 7.83525 69.345 123.357 0 5
680 1 3.12636 12.7999 75.0104 123.033 0 3
700 1 2.61455 7.48654 82.0925 121.8 0 3
943 1 2.8698 9.90016 97.7052 120.836 0 3
626 1 2.81656 9.35935 107.668 120.816 0 4
869 1 3.06098 12.0135 119.521 122.956 0 4
532 1 2.30053 5.1 124.136 120.732 0 4
47 1 2.41655 5.91124 131.056 121.084 0 3
657 1 2.68324 8.0922 -134.931 125.509 0 3
822 1 2.74155 8.63131 -128.541 124.928 0 5
693 1 2.4121 5.87864 -123.605 125.315 0 3
760 1 2.53039 6.78655 -119.047 123.925 0 5
578 1 2.88435 10.0515 -111.423 123.705 0 4
1064 1 2.91273 10.3511 -100.458 125.496 0 5
747 1 2.2727 4.91719 -85.5848 123.846 0 5
1025 1 2.29722 5.07804 -81.6669 125.9 0 3
1106 1 2.2188 4.57553 -77.7911 123.887 0 3
668 1 2.75156 8.72617 -68.6614 124.219 0 4
653 1 2.92482 10.4806 -63.6354 126.767 0 4
1131 1 3.09454 12.413 -54.0079 124.871 0 5
601 1 2.29883 5.08872 -48.6997 125.661 0 3
1033 1 2.26511 4.86805 -43.0994 126.291 0 3
1055 1 2.66117 7.89415 -38.331 125.786 0 3
863 1 2.30722 5.14466 -29.6747 123.758 0 3
729 1 2.34909 5.42987 -24.8205 125.146 0 3
378 1 2.41159 5.87487 -20.2306 125.943 0 5
241 1 2.36763 5.55943 -11.9017 123.711 0 4
414 1 3.09119 12.3727 -6.57717 123.565 0 5
374 1 2.98009 11.086 -0.910281 125.373 0 5
177 1 2.61789 7.51522 6.76633 123.949 0 4
501 1 2.71437 8.37713 11.7657 125.336 0 5
452 1 3.04757 11.8563 21.8211 125.714 0 5
261 1 2.28536 4.99982 27.059 126.019 0 4
757 1 2.76038 8.81036 36.3453 125.909 0 4
530 1 2.857 9.76835 41.4764 123.494 0 4
964 1 2.18012 4.34038 58.2079 123.523 0 5
985 1 2.42076 5.94216 61.1206 126.987 0 5
518 1 2.37685 5.62463 64.4413 123.752 0 5
1020 1 2.41755 5.91857 79.447 125.918 0 4
509 1 3.0054 11.3709 86.4559 124.89 0 5
704 1 3.04081 11.7776 92.2694 124.293 0 3
1040 1 2.86651 9.86622 97.5672 126.402 0 5
825 1 2.99952 11.3043 102.822 123.995 0 5
604 1 2.29611 5.0707 111.835 123.701 0 4
910 1 3.08687 12.3209 127.177 124.864 0 4
189 1 2.15059 4.16643 134.248 123.879 0 3
819 1 2.28709 5.01116 -138.354 128.46 0 3
1084 1 2.72786 8.50267 -131.251 129.461 0 5
1097 1 2.15025 4.16444 -126.409 129.27 0 3
968 1 2.16179 4.23184 -120.229 128.266 0 4
514 1 2.86204 9.82006 -115.38 127.634 0 5
645 1 2.32732 5.28026 -110.511 128.748 0 4
823 1 2.89101 10.1214 -105.611 127.767 0 5
515 1 2.34702 5.41549 -96.5016 128.911 0 4
546 1 2.49702 6.52158 -92.0222 127.555 0 3
1002 1 2.92565 10.4895 -86.3917 128.775 0 4
698 1 2.58025 7.1957 -81.2615 130.608 0 4
971 1 3.10367 12.5232 -73.8114 127.215 0 4
581 1 2.75018 8.71312 -68.5603 129.508 0 4
994 1 2.35029 5.43817 -58.5236 127.778 0 4
543 1 2.43734 6.06511 -48.6584 130.376 0 3
828 1 2.30883 5.15539 -43.935 130.648 0 4
679 1 3.03525 11.7131 -33.033 127.597 0 6
883 1 2.57982 7.19212 -27.6879 129.027 0 3
836 1 2.90388 10.2571 -22.303 130.641 0 4
63 1 3.1079 12.5745 -15.2719 127.849 0 6
1310 1 2.38065 5.65163 -9.88632 127.937 0 4
1648 1 2.69236 8.17503 -5.06322 129.024 0 5
1598 1 2.73621 8.58102 3.84192 128.261 0 5
1243 1 2.20465 4.48857 8.67279 128.938 0 4
467 1 2.53558 6.82845 15.5831 128.679 0 3
171 1 2.15895 4.21518 19.8048 130.419 0 4
915 1 2.9808 11.094 24.8797 130.695 0 6
1124 1 2.49282 6.48877 31.446 127.447 0 5
798 1 2.79751 9.17073 40.3326 129.587 0 4
900 1 2.92656 10.4993 45.449 127.493 0 4
716 1 3.01107 11.4354 51.043 128.611 0 4
827 1 2.54863 6.9344 56.3512 127.7 0 4
559 1 2.7016 8.25945 66.026 128.32 0 4
589 1 2.83316 9.52577 71.4403 128.335 0 4
808 1 2.16456 4.24812 76.2427 129.044 0 3
548 1 2.93305 10.5694 82.9891 129.573 0 5
669 1 3.0207 11.5455 88.6819 130.295 0 4
765 1 2.29094 5.03651 93.7525 129.676 0 3
639 1 2.68173 8.07859 101.874 129.473 0 4
536 1 3.05604 11.9555 107.866 127.231 0 4
665 1 2.39805 5.77647 113.196 128.136 0 4
702 1 3.11965 12.7176 118.602 128.827 0 5
766 1 2.83379 9.5322 124.372 130.016 0 4
284 1 2.83344 9.52861 131.819 128.143 0 4
15 1 2.45594 6.20501 137.047 127.139 0 3
88 1 2.35241 5.45294 140.418 130.245 0 3
867 1 2.43114 6.01889 -141.396 131.446 0 3
754 1 2.67004 7.97338 -135.509 132.469 0 3
522 1 2.65742 7.86084 -122.646 132.167 0 4
1101 1 2.40532 5.82917 -117.732 132.169 0 4
796 1 2.67179 7.98905 -112.824 133.001 0 4
802 1 2.97836 11.0668 -107.216 133.206 0 3
1129 1 2.99431 11.2455 -101.122 131.273 0 5
1009 1 3.08058 12.2458 -95.9622 134.272 0 4
927 1 2.75732 8.78115 -90.5581 132.419 0 5
970 1 2.59907 7.35435 -85.5168 134.122 0 5
584 1 2.93481 10.5884 -76.1874 132.702 0 3
1116 1 2.39218 5.73419 -63.1475 133.686 0 3
990 1 2.29718 5.0778 -58.8418 132.332 0 3
1082 1 2.94452 10.6938 -54.0131 130.746 0 5
810 1 2.78535 9.05165 -37.3144 131.242 0 3
553 1 2.79011 9.09819 -32.141 133.25 0 4
957 1 2.94317 10.6791 -17.1871 133.407 0 6
1582 1 2.3199 5.22991 -12.1396 132.025 0 5
1677 1 3.04411 11.816 -7.38529 134.097 0 4
10 1 2.8304 9.49796 -0.392624 131.745 0 4
1655 1 2.39041 5.72142 6.21526 132.638 0 4
487 1 2.56395 7.06019 11.2338 132.927 0 2
1801 1 2.57652 7.16457 16.3069 133.628 0 4
764 1 2.27499 4.93203 29.8561 131.87 0 4
960 1 2.95821 10.8436 34.9707 131.384 0 6
318 1 2.98771 11.1713 44.8534 133.338 0 3
172 1 2.58372 7.22482 50.3628 133.941 0 5
694 1 2.99064 11.2042 55.764 133.086 0 5
672 1 3.13267 12.8775 61.8067 132.376 0 4
1113 1 2.95683 10.8285 67.7677 133.48 0 5
533 1 2.61123 7.45799 73.2283 133.441 0 4
903 1 2.97207 10.9967 78.7033 133.403 0 4
696 1 2.27541 4.93476 97.5997 131.831 0 3
733 1 2.78717 9.06941 105.91 132.715 0 5
529 1 2.81198 9.31377 111.213 132.914 0 4
848 1 2.33391 5.32524 116.032 133.442 0 4
728 1 2.57333 7.13796 120.698 133.947 0 4
958 1 2.93967 10.641 129.112 133.199 0 4
614 1 2.95308 10.7874 135.654 132.145 0 5
763 1 2.22943 4.64164 143.512 133.248 0 3
594 1 2.6282 7.60434 -144.514 134.862 0 3
820 1 2.53544 6.82732 -139.236 135.835 0 4
775 1 2.78474 9.04572 -130.531 134.88 0 3
593 1 2.58435 7.2301 -125.392 136.312 0 3
647 1 2.82896 9.48348 -117.338 137.263 0 4
986 1 2.82265 9.42018 -101.65 136.873 0 4
586 1 2.37046 5.57939 -80.7772 135.381 0 4
925 1 2.18952 4.39681 -77.043 137.7 0 5
739 1 2.74281 8.64318 -72.285 137.419 0 4
907 1 2.64934 7.78935 -67.9214 134.621 0 4
866 1 2.57976 7.19162 -60.1902 137.605 0 4
1063 1 2.37462 5.60878 -55.6716 135.776 0 3
816 1 2.59601 7.32841 -50.8288 135.067 0 4
752 1 2.52645 6.75489 -45.9082 134.919 0 5
1065 1 2.43536 6.05029 -41.1518 134.472 0 5
1494 1 3.05619 11.9573 -36.3932 137.084 0 3
424 1 2.96782 10.9497 -26.6218 134.377 0 6
1585 1 2.18049 4.34262 -21.6784 135.643 0 4
1517 1 3.09997 12.4785 -12.6484 137.281 0 4
1708 1 2.82897 9.48365 -2.43294 136.997 0 5
1809 1 2.57378 7.14174 2.76268 136.003 0 5
1308 1 3.04751 11.8557 8.02234 137.613 0 4
1142 1 2.3196 5.22794 13.2903 137.777 0 2
1506 1 2.59413 7.3125 21.2929 134.811 0 6
1605 1 2.74604 8.67375 26.4597 136.047 0 4
1434 1 3.04379 11.8123 32.1418 136.551 0 5
783 1 2.83136 9.50768 39.3089 134.981 0 5
121 1 2.43289 6.03192 53.3165 137.878 0 3
876 1 2.52683 6.75795 58.826 137.545 0 3
840 1 2.76502 8.85492 64.0608 137.708 0 5
854 1 2.29766 5.08095 75.0501 137.973 0 3
1062 1 2.4066 5.83848 84.7044 134.5 0 2
884 1 3.14225 12.9961 90.747 135.871 0 4
1090 1 2.84086 9.60366 96.4863 136.924 0 4
955 1 2.48315 6.41354 101.212 134.714 0 4
1133 1 2.18938 4.39597 112.508 137.727 0 2
779 1 2.2866 5.00794 124.687 136.206 0 2
603 1 2.85106 9.70755 133.283 137.134 0 5
924 1 2.58493 7.23497 139.597 135.716 0 4
979 1 2.5747 7.14935 146.445 136.691 0 3
826 1 2.66372 7.91687 -148.013 138.26 0 3
912 1 2.95187 10.7741 -142.572 139.951 0 4
998 1 2.62249 7.55492 -134.722 138.247 0 3
718 1 2.93566 10.5975 -127.766 141.008 0 4
634 1 3.14964 13.088 -121.762 141.124 0 4
1119 1 3.05474 11.9402 -111.653 138.461 0 5
934 1 2.33368 5.32369 -106.425 138.264 0 4
724 1 2.79777 9.17333 -97.1172 139.932 0 4
861 1 3.05487 11.9417 -89.6007 137.952 0 5
1099 1 2.70871 8.32483 -84.0459 139.133 0 5
1036 1 2.27241 4.91531 -79.6466 141.187 0 4
652 1 2.77659 8.96648 -65.2426 139.134 0 4
1312 1 2.30347 5.1196 -56.913 141.141 0 3
1246 1 2.65832 7.86885 -52.2938 139.974 0 5
1454 1 2.36184 5.51874 -47.422 139.441 0 5
1695 1 2.22 4.58295 -43.0309 138.607 0 5
1250 1 2.35012 5.43699 -39.5359 141.351 0 5
1711 1 3.13218 12.8714 -30.489 138.955 0 3
1753 1 2.92179 10.448 -24.5352 139.745 0 5
1734 1 2.21593 4.55782 -17.932 138.394 0 2
1668 1 2.25302 4.79054 -7.77335 139.251 0 4
1283 1 2.51529 6.66584 1.31713 140.736 0 5
1366 1 2.33519 5.33406 17.8257 138.194 0 5
1569 1 2.37618 5.61988 22.224 139.566 0 4
1800 1 2.26279 4.85309 26.5356 140.907 0 4
1554 1 3.11933 12.7138 36.8881 140.309 0 5
245 1 2.87078 9.91034 42.7133 139.328 0 4
205 1 2.66654 7.94206 47.9941 138.379 0 3
513 1 2.64615 7.76129 70.1333 138.37 0 4
1051 1 3.11067 12.6081 80.3245 139.07 0 5
778 1 2.6947 8.1963 86.038 139.301 0 5
1037 1 2.95911 10.8536 101.263 140.042 0 5
901 1 3.03169 11.6719 107.282 138.225 0 2
893 1 2.59248 7.29854 117.274 138.014 0 4
624 1 2.56375 7.05854 121.779 140.205 0 2
1045 1 2.43571 6.05295 128.482 138.524 0 5
1123 1 2.17576 4.31438 137.332 139.703 0 4
731 1 3.03487 11.7087 142.348 140.441 0 4
939 1 2.83006 9.49453 149.947 140.445 0 3
753 1 2.47802 6.37388 -154.833 145.147 0 3
987 1 2.62885 7.61004 -151.508 141.76 0 4
1066 1 2.38223 5.6629 -146.764 142.882 0 5
523 1 2.24574 4.74422 -142.994 145.162 0 3
920 1 2.98978 11.1946 -138.167 143.664 0 4
1074 1 2.73215 8.54282 -132.716 143.179 0 4
741 1 3.14069 12.9767 -115.683 142.943 0 4
1007 1 2.84253 9.6206 -107.973 142.986 0 4
516 1 2.41943 5.93234 -101.956 142.003 0 2
916 1 2.91874 10.4154 -92.4562 142.986 0 5
872 1 2.31916 5.22491 -87.3408 142.753 0 5
542 1 2.5978 7.34354 -74.9573 141.913 0 5
786 1 2.79914 9.18678 -69.7163 142.212 0 5
1197 1 2.71711 8.4025 -61.4323 142.848 0 4
1177 1 2.71758 8.40694 -53.6872 145.143 0 3
1481 1 2.21642 4.56087 -49.1536 143.568 0 5
1327 1 2.90858 10.307 -44.1693 143.535 0 5
1690 1 2.94501 10.6991 -34.7264 143.151 0 5
1739 1 2.93833 10.6265 -19.7703 143.089 0 6
1296 1 2.25939 4.83126 -14.7896 142.046 0 4
1293 1 2.48031 6.39159 -10.2615 143.182 0 3
1612 1 3.10011 12.4801 -3.83845 142.668 0 4
1154 1 2.40201 5.80514 5.77597 142.609 0 3
1150 1 2.57944 7.1889 10.6762 142.396 0 4
1652 1 3.0898 12.3561 16.1569 143.237 0 4
1337 1 2.93851 10.6285 21.8814 144.748 0 4
1188 1 2.82321 9.42576 31.3575 142.255 0 5
1498 1 2.80833 9.27757 44.1948 144.637 0 4
322 1 3.02341 11.5765 49.937 143.565 0 3
223 1 2.4136 5.88962 55.8899 141.864 0 2
1078 1 2.67256 7.99594 61.0555 142.139 0 5
670 1 2.98584 11.1503 66.6531 142.719 0 5
942 1 2.81829 9.3766 72.396 143.172 0 4
759 1 2.59522 7.32168 77.6365 143.949 0 3
725 1 2.9127 10.3509 83.3529 144.161 0 4
520 1 2.94465 10.6952 90.9438 141.781 0 4
678 1 2.40916 5.85717 96.3291 142.134 0 4
768 1 2.56505 7.06931 105.128 143.778 0 3
795 1 2.44391 6.11423 110.022 142.807 0 3
563 1 2.39763 5.77343 114.942 142.266 0 2
1109 1 2.40721 5.84293 126.052 142.446 0 4
1096 1 3.04771 11.858 131.741 142.752 0 4
852 1 2.9727 11.0038 137.378 144.608 0 5
844 1 2.28499 4.99738 146.318 143.649 0 4
1035 1 2.65586 7.84699 153.676 144.101 0 2
937 1 3.0385 11.7508 -149.713 147.13 0 5
1118 1 2.60041 7.36574 -136.13 148.748 0 4
608 1 3.13073 12.8536 -130.505 148.431 0 5
1103 1 2.87508 9.95495 -125.109 146.076 0 5
911 1 2.46095 6.24302 -119.909 146.374 0 5
749 1 2.35838 5.4945 -115.552 148.365 0 4
1107 1 2.25778 4.82099 -111.512 146.467 0 3
510 1 2.77327 8.93436 -106.902 148.325 0 5
896 1 2.19419 4.42496 -102.514 146.481 0 3
717 1 2.9563 10.8227 -97.6354 145.567 0 4
1004 1 2.45433 6.19282 -93.0219 148.123 0 5
1076 1 2.70552 8.29551 -88.0393 147.62 0 4
811 1 3.14685 13.0532 -82.7136 145.52 0 5
1464 1 2.17531 4.31172 -77.5024 145.746 0 3
1348 1 2.88262 10.0334 -71.4846 147.539 0 2
1583 1 2.93931 10.6371 -65.805 146.233 0 4
1460 1 2.56146 7.03964 -58.4663 147.053 0 4
1773 1 2.45043 6.16337 -48.6635 148.118 0 4
1727 1 2.48292 6.41177 -39.2467 146.109 0 4
31 1 2.48395 6.4197 -34.959 148.512 0 5
1375 1 2.71795 8.41031 -30.2723 146.473 0 4
1710 1 2.85811 9.77971 -24.9574 145.354 0 5
281 1 2.32835 5.28728 -20.7527 148.223 0 4
1404 1 3.12242 12.7516 -15.4782 147.277 0 6
363 1 2.85488 9.74657 -9.72352 148.407 0 5
482 1 2.97253 11.0018 -4.03177 148.564 0 5
1369 1 2.878 9.98531 1.14519 146.031 0 4
1170 1 2.64893 7.78575 6.34888 147.614 0 4
1339 1 2.39838 5.77887 11.2911 147.198 0 4
1395 1 2.47591 6.35759 15.8056 148.692 0 4
1511 1 2.53696 6.83955 27.1758 145.504 0 5
1161 1 3.1088 12.5854 32.065 148.04 0 4
1158 1 2.66464 7.92512 38.8395 145.625 0 4
642 1 2.85487 9.74646 53.3911 148.189 0 3
527 1 2.33104 5.30566 58.0166 145.997 0 4
1537 1 2.30551 5.13322 63.0364 146.618 0 2
1026 1 2.49253 6.4865 68.0496 147.899 0 4
1445 1 2.60741 7.42533 79.1217 148.777 0 4
882 1 2.38959 5.71554 88.1794 146.287 0 3
857 1 3.13856 12.9503 93.6842 146.979 0 4
817 1 2.47539 6.35357 100.027 145.315 0 2
727 1 2.68405 8.09956 107.716 148.178 0 4
813 1 2.88742 10.0837 113.023 147.047 0 5
1120 1 2.54775 6.92722 122.183 145.331 0 2
635 1 2.70369 8.27864 127.556 147.137 0 4
953 1 3.11654 12.6797 133.069 148.646 0 6
1017 1 2.46808 6.29744 142.437 145.999 0 3
965 1 3.04683 11.8476 148.977 147.996 0 3
1083 1 2.84367 9.63223 157.204 147.972 0 2
742 1 2.35563 5.47532 -162.278 152.16 0 2
636 1 3.12127 12.7374 -158.144 149.22 0 4
1032 1 2.21986 4.58209 -153.239 150.75 0 3
681 1 2.86965 9.89861 -147.094 152.251 0 4
873 1 3.12653 12.8019 -141.592 150.16 0 4
1018 1 2.88452 10.0533 -125.549 151.786 0 4
868 1 3.14302 13.0057 -119.616 151.838 0 5
1650 1 2.60935 7.44193 -102.621 151.421 0 3
784 1 3.02685 11.6161 -97.0863 151.626 0 3
1438 1 2.40039 5.79341 -90.9606 152.282 0 4
1672 1 2.4775 6.36987 -86.2002 152.333 0 5
1637 1 2.48595 6.43526 -81.5358 150.954 0 4
1279 1 2.83866 9.58141 -76.326 150.472 0 5
1561 1 2.15502 4.1922 -66.9757 151.06 0 3
1639 1 2.28654 5.00755 -62.2313 149.931 0 4
1248 1 2.37904 5.64016 -58.0474 151.872 0 4
1559 1 2.8968 10.1822 -52.8755 151.297 0 3
1274 1 2.83908 9.58568 -43.5409 149.135 0 6
1606 1 2.37523 5.61314 -38.8142 151.295 0 4
1625 1 2.23327 4.66562 -31.2432 151.31 0 4
1798 1 2.32513 5.2654 -26.7104 150.069 0 3
1346 1 2.18206 4.35198 -17.4792 152.125 0 4
1300 1 2.16925 4.27578 -13.1792 151.969 0 4
491 1 3.1452 13.0327 0.80122 152.03 0 5
1145 1 2.21768 4.56862 6.0581 152.434 0 4
115 1 2.88235 10.0306 11.0665 152.365 0 4
1607 1 2.9487 10.7394 20.8258 150.438 0 5
1452 1 2.92341 10.4655 26.5684 150.778 0 4
1768 1 2.65257 7.81785 37.0801 150.545 0 5
1140 1 2.67512 8.01893 42.2449 149.633 0 5
1475 1 2.84058 9.60088 47.7373 148.906 0 4
1524 1 2.97023 10.9764 59.2409 151.045 0 4
1603 1 2.39119 5.72704 64.4257 151.024 0 5
1298 1 3.11839 12.7022 73.4846 148.895 0 4
792 1 2.44653 6.13398 84.0099 149.373 0 4
1013 1 2.15247 4.17733 88.2397 150.783 0 3
1027 1 3.14684 13.0531 98.4966 150.788 0 3
575 1 2.52793 6.76678 103.974 151.598 0 4
992 1 2.90917 10.3133 111.222 152.419 0 5
746 1 2.84893 9.68574 118.279 148.879 0 4
1034 1 2.62458 7.57304 123.415 150.364 0 4
564 1 2.46493 6.27336 138.443 149.804 0 4
615 1 2.77265 8.92838 143.444 150.973 0 4
895 1 2.25483 4.8021 152.924 151.248 0 2
842 1 2.6098 7.4458 161.074 151.439 0 3
794 1 2.25407 4.79721 -165.304 155.095 0 3
887 1 2.32428 5.25961 -156.888 154.417 0 4
851 1 2.947 10.7208 -151.777 155.546 0 6
1072 1 2.95957 10.8586 -140.696 156.016 0 5
976 1 2.81592 9.35302 -135.398 154.02 0 5
531 1 2.38164 5.65869 -130.328 153.76 0 5
1098 1 2.42009 5.93724 -114.273 153.12 0 3
557 1 3.06249 12.0313 -108.881 153.57 0 4
1523 1 2.81194 9.31342 -78.7664 155.419 0 4
1491 1 3.11152 12.6185 -71.4198 153.639 0 4
1795 1 2.76137 8.8199 -63.7387 154.632 0 5
1779 1 2.87157 9.91851 -47.4744 153.261 0 5
1748 1 2.23274 4.66233 -42.4542 153.95 0 5
1221 1 2.35732 5.48712 -34.9467 153.993 0 2
1174 1 2.83915 9.58633 -27.818 154.962 0 5
1584 1 2.94714 10.7223 -22.4344 153.124 0 5
141 1 2.35445 5.4671 -11.4641 156.055 0 5
181 1 2.90626 10.2824 -7.03019 153.453 0 5
1565 1 2.66999 7.97296 16.3541 153.709 0 5
410 1 2.39576 5.75995 20.8988 155.718 0 4
1257 1 2.42688 5.98736 31.052 153.431 0 4
1600 1 2.30402 5.12326 35.3413 155.081 0 5
1500 1 2.87335 9.93696 40.3874 154.807 0 6
1799 1 2.40362 5.81685 45.339 153.489 0 5
1571 1 2.36304 5.52719 49.9326 153.501 0 4
1750 1 2.36697 5.55479 54.5209 153.176 0 5
1531 1 2.29269 5.04805 64.9389 155.582 0 2
1264 1 2.39024 5.7202 68.7574 152.66 0 4
1544 1 2.30735 5.14555 73.0193 154.203 0 5
1091 1 3.04724 11.8525 78.23 154.238 0 5
1144 1 2.80524 9.247 83.9339 154.527 0 3
933 1 2.82063 9.39997 92.674 152.703 0 4
880 1 2.7567 8.77521 101.182 155.993 0 6
1058 1 2.69364 8.18665 116.512 154.03 0 4
1060 1 2.18658 4.3791 121.338 154.685 0 2
613 1 3.14494 13.0295 128.544 152.776 0 5
685 1 2.50116 6.5541 134.035 154.016 0 4
956 1 2.66257 7.90664 139.077 154.765 0 4
663 1 2.16172 4.23141 147.85 152.929 0 3
930 1 2.3793 5.64205 156.692 153.596 0 4
1029 1 2.49361 6.4949 164.635 154.703 0 4
734 1 2.83121 9.50613 -168.154 158.837 0 3
736 1 2.5571 7.00375 -160.945 157.037 0 3
723 1 2.45529 6.2001 -155.788 158.983 0 3
1108 1 3.14919 13.0823 -146.299 158.073 0 5
618 1 2.39354 5.74395 -136.445 159.067 0 5
549 1 2.21355 4.54316 -132.134 157.838 0 5
962 1 2.73298 8.55063 -127.233 157.647 0 5
687 1 2.78582 9.05621 -121.875 157.117 0 5
793 1 2.23688 4.6883 -116.87 156.96 0 2
860 1 2.19099 4.40566 -112.167 157.378 0 3
1054 1 2.18843 4.39019 -108.389 159.536 0 3
517 1 3.12532 12.7871 -103.744 156.982 0 6
1459 1 2.26473 4.86562 -98.3743 156.7 0 3
1450 1 2.42437 5.96876 -93.5014 156.174 0 2
1200 1 2.29835 5.08553 -88.7185 156.312 0 3
1288 1 2.36142 5.51579 -83.7749 156.369 0 3
1476 1 3.12313 12.7602 -72.819 159.63 0 5
1774 1 2.40995 5.86291 -67.7629 157.719 0 5
1303 1 2.92387 10.4704 -58.686 157.019 0 5
1765 1 2.18382 4.36251 -53.7416 157.844 0 3
1331 1 2.34191 5.3802 -49.3252 158.097 0 4
1505 1 2.79313 9.12773 -44.3016 158.459 0 4
1399 1 2.15964 4.21923 -39.0915 156.694 0 2
1427 1 2.46424 6.26813 -31.9314 158.072 0 2
447 1 2.79056 9.1025 -21.4071 158.7 0 5
1407 1 2.66946 7.96821 -16.3577 156.8 0 3
458 1 2.91615 10.3876 -7.30046 159.189 0 5
375 1 2.50868 6.61342 -2.59467 156.515 0 4
464 1 2.97854 11.0688 3.89791 157.157 0 5
352 1 2.42817 5.99691 9.1876 157.225 0 4
39 1 3.1069 12.5623 14.3029 158.99 0 5
1326 1 3.03454 11.7049 26.1459 156.624 0 4
1443 1 2.99682 11.2738 31.6711 158.748 0 5
1291 1 2.43016 6.01161 37.4887 159.185 0 3
1728 1 2.55469 6.98397 42.4631 159.695 0 4
1770 1 2.4818 6.4031 47.1217 157.92 0 4
1790 1 2.93326 10.5716 52.477 157.954 0 5
1661 1 2.99885 11.2967 58.3147 156.907 0 4
1541 1 2.17354 4.30123 69.6403 157.121 0 3
1651 1 2.63008 7.6207 74.7713 158.696 0 5
805 1 2.84632 9.65913 88.916 156.843 0 4
1122 1 2.37908 5.64048 96.1809 156.289 0 4
950 1 3.00813 11.4019 106.815 156.237 0 5
1273 1 3.07716 12.205 112.431 158.169 0 5
1797 1 2.73557 8.57501 118.028 159.131 0 4
558 1 3.00243 11.3373 126.802 158.464 0 4
646 1 2.47926 6.38345 132.175 158.461 0 3
660 1 2.61498 7.49017 144.075 156.174 0 4
690 1 2.48551 6.43185 148.962 157.258 0 4
512 1 2.56666 7.08265 153.905 157.598 0 3
569 1 2.25031 4.77326 160.285 156.235 0 4
908 1 2.16784 4.26749 163.442 159.147 0 3
807 1 2.26787 4.88585 167.871 157.814 0 2
1030 1 2.17505 4.3102 -171.908 161.632 0 2
561 1 2.51521 6.66519 -163.344 161.471 0 2
918 1 2.39518 5.75579 -151.107 160.763 0 3
673 1 2.86572 9.85804 -140.93 161.76 0 5
966 1 3.12614 12.7972 -130.071 162.673 0 5
1325 1 2.91694 10.3961 -124.123 162.263 0 6
1335 1 2.4841 6.4209 -118.921 161.318 0 4
932 1 2.72835 8.50722 -113.904 161.741 0 4
1244 1 2.2426 4.72434 -104.862 162.183 0 5
1294 1 2.87596 9.96411 -99.8721 161.566 0 5
1465 1 2.79665 9.16227 -94.3093 161.161 0 4
1455 1 2.6535 7.82609 -88.9178 161.155 0 4
1808 1 2.884 10.0479 -83.4822 161.504 0 4
1738 1 2.5536 6.97506 -78.2548 160.619 0 4
1151 1 2.87894 9.99512 -67.8814 163.002 0 3
1359 1 2.63143 7.63244 -63.3338 159.933 0 5
1520 1 2.31864 5.22143 -56.2514 161.555 0 4
1360 1 3.02674 11.6148 -51.2588 163.066 0 4
1717 1 2.68325 8.0923 -40.8511 162.58 0 5
1698 1 2.57473 7.14963 -36.2298 160.407 0 4
1211 1 3.11201 12.6244 -26.866 160.715 0 5
1526 1 2.355 5.47095 -17.4521 161.877 0 3
11 1 2.66607 7.93784 -12.6283 160.821 0 5
1429 1 2.87639 9.96859 -0.157288 161.292 0 3
1208 1 2.94062 10.6514 7.0893 162.064 0 4
1705 1 2.16985 4.27933 19.411 159.942 0 4
1474 1 3.01175 11.4432 23.9855 162.201 0 4
1709 1 2.29135 5.03918 34.681 162.992 0 4
1295 1 2.79322 9.12861 48.8404 162.807 0 3
1383 1 2.58134 7.20488 55.7019 162.186 0 4
1356 1 2.93596 10.6008 61.1135 162.09 0 4
1601 1 2.47663 6.36314 66.1009 160.114 0 5
1277 1 2.51917 6.69673 70.7481 161.81 0 3
947 1 2.96349 10.9018 80.2018 159.792 0 4
1791 1 2.21656 4.56171 85.3167 160.361 0 3
1812 1 3.11381 12.6463 93.1905 160.783 0 5
1456 1 2.3236 5.25501 98.5106 160.228 0 5
1206 1 2.98339 11.1229 103.6 161.199 0 5
1824 1 2.77663 8.9669 109.006 162.844 0 3
1686 1 2.21228 4.5353 114.734 162.793 0 4
713 1 2.42571 5.9787 122.46 161.416 0 4
1008 1 2.89702 10.1845 137.572 160.012 0 3
1028 1 2.75445 8.75371 143.153 161.32 0 2
1056 1 3.05486 11.9416 148.828 162.625 0 3
545 1 2.3559 5.47719 154.163 163.002 0 3
1039 1 2.48621 6.4373 158.085 160.287 0 4
799 1 2.9405 10.6501 166.189 163.302 0 4
1095 1 2.4641 6.26702 170.963 161.029 0 3
617 1 2.49188 6.48145 -174.715 164.951 0 2
573 1 2.59708 7.33743 -167.738 164.039 0 4
1012 1 2.93046 10.5413 -156.086 164.218 0 3
570 1 2.55716 7.00427 -150.546 165.599 0 4
833 1 2.57655 7.16483 -145.96 163.603 0 4
777 1 2.87154 9.91818 -135.792 164.147 0 5
1281 1 3.03691 11.7323 -120.108 166.588 0 5
1586 1 2.57382 7.14209 -114.573 166.847 0 5
1258 1 3.07933 12.2309 -109.251 165.025 0 4
1173 1 2.98586 11.1505 -102.422 166.788 0 4
1449 1 3.09981 12.4765 -96.4021 166.525 0 5
1428 1 2.68313 8.09119 -90.7148 166.072 0 4
1352 1 2.66416 7.92077 -85.4693 166.581 0 4
1759 1 2.59352 7.30735 -78.4565 165.585 0 3
1324 1 2.79743 9.16992 -73.0085 165.521 0 2
1228 1 3.10201 12.5031 -60.4655 164.769 0 5
1671 1 2.49952 6.54122 -45.871 163.408 0 5
1469 1 2.75502 8.75918 -36.8048 166.115 0 4
1435 1 2.78934 9.09065 -31.9554 163.555 0 4
1245 1 2.82308 9.42449 -27.2528 166.552 0 5
145 1 2.20082 4.46523 -22.4509 163.569 0 3
1139 1 2.30948 5.15981 -18.8855 166.239 0 5
1548 1 2.68159 8.07726 -13.9975 165.919 0 4
207 1 2.22497 4.61384 -9.39066 164.413 0 4
1813 1 2.48189 6.40377 -4.79348 163.856 0 5
194 1 2.83238 9.51795 3.1506 166.136 0 4
1229 1 2.25308 4.79094 11.9303 163.742 0 4
371 1 2.80734 9.26773 16.9294 164.181 0 5
1572 1 2.39088 5.72486 21.2972 166.806 0 5
1670 1 3.03591 11.7208 29.5781 164.296 0 5
1477 1 2.49293 6.4896 39.3176 163.639 0 5
1713 1 2.31895 5.22354 43.9868 164.204 0 4
1555 1 2.6549 7.83846 52.791 166.409 0 4
1696 1 2.22542 4.61664 58.0104 166.237 0 3
1737 1 2.80257 9.22053 65.7421 165.312 0 5
1304 1 2.60003 7.36248 75.6002 163.767 0 2
1409 1 3.04556 11.8329 80.9446 165.64 0 3
1437 1 2.51644 6.67493 88.4877 163.847 0 2
1653 1 2.37263 5.59471 93.0477 166.128 0 4
1551 1 2.7379 8.59688 98.0134 165.151 0 3
1540 1 2.15873 4.21389 103.175 166.267 0 3
1432 1 2.20943 4.5178 118.822 164.153 0 4
1487 1 2.53893 6.85554 123.006 166.204 0 5
1436 1 2.76497 8.85441 127.801 164.012 0 4
1021 1 2.70623 8.30201 133.131 163.385 0 5
674 1 2.72743 8.49866 137.936 165.538 0 4
1334 1 2.90574 10.2769 143.233 166.847 0 3
726 1 2.82984 9.49231 159.86 165.187 0 3
776 1 2.94383 10.6863 174.187 165.016 0 4
619 1 2.34992 5.4356 -178.073 167.987 0 3
1059 1 2.55829 7.01354 -170.696 168.201 0 2
859 1 2.20372 4.4829 -165.091 167.797 0 3
648 1 2.60157 7.37553 -160.407 167.491 0 3
1825 1 2.68599 8.11712 -153.993 169.34 0 4
1426 1 2.95908 10.8532 -146.251 168.972 0 5
565 1 3.07468 12.1755 -140.46 167.665 0 4
1480 1 2.35644 5.48096 -135.208 169.2 0 4
730 1 2.68543 8.11207 -130.392 168.373 0 4
771 1 2.28888 5.02292 -125.704 167.1 0 3
1564 1 2.38789 5.70337 -106.777 169.805 0 5
1222 1 2.70871 8.32486 -81.3191 169.91 0 4
1149 1 2.28014 4.96564 -75.9748 169.632 0 4
1769 1 3.1242 12.7734 -65.3409 168.469 0 3
1272 1 2.42235 5.95387 -59.5894 170.148 0 3
1363 1 2.74495 8.66348 -55.1951 167.254 0 2
1220 1 2.23463 4.67418 -48.2574 167.408 0 3
1545 1 2.77405 8.94192 -42.7755 167.585 0 4
1589 1 2.85859 9.78464 -32.2051 169.272 0 3
1568 1 2.59212 7.29546 -22.6096 169.259 0 4
1577 1 2.17956 4.33705 -16.7692 170.177 0 2
1716 1 3.00585 11.376 -6.78976 168.909 0 6
81 1 2.32611 5.27205 -1.72763 167.422 0 4
65 1 2.99784 11.2853 8.17909 168.928 0 4
1269 1 2.48376 6.41828 13.5419 168.131 0 5
1570 1 2.23024 4.64667 17.884 169.831 0 4
1741 1 2.26725 4.88185 25.7503 167.844 0 3
1433 1 2.70101 8.25403 31.5896 169.578 0 5
1591 1 2.31175 5.17503 36.0187 167.347 0 4
1275 1 2.46931 6.30687 40.6409 168.324 0 4
1694 1 2.97671 11.0484 45.9908 168.958 0 5
1341 1 3.12177 12.7436 61.8626 169.751 0 6
1203 1 2.19538 4.43216 67.0523 170.081 0 5
1373 1 2.74901 8.70201 70.9095 167.032 0 4
1389 1 3.08697 12.3221 76.1464 169.345 0 6
1649 1 2.94864 10.7387 85.6443 169.2 0 3
1213 1 2.56648 7.08109 90.9038 170.448 0 4
1818 1 2.25107 4.77812 95.6263 169.851 0 4
1530 1 2.41932 5.93157 100.203 169.706 0 5
1485 1 2.34062 5.37132 104.826 170.41 0 3
1635 1 2.84761 9.67232 112.419 167.18 0 4
1662 1 2.79046 9.10154 117.678 168.953 0 4
1419 1 2.67959 8.05921 127.066 169.284 0 5
1703 1 2.46337 6.26148 131.964 168.291 0 4
791 1 2.15143 4.1713 149.817 167.572 0 3
1622 1 3.11483 12.6588 154.916 168.363 0 4
1792 1 3.13452 12.9004 164.34 168.978 0 5
767 1 2.37246 5.59354 169.504 167.358 0 4
650 1 2.56447 7.06451 173.288 170.379 0 6
722 1 2.66829 7.95772 178.133 168.63 0 4
602 1 2.18671 4.37989 -181.133 170.891 0 3
1092 1 2.3786 5.63703 -174.635 171.105 0 4
831 1 3.11168 12.6205 -164.501 172.877 0 4
1712 1 3.03684 11.7315 -158.429 172.7 0 5
1519 1 2.59875 7.35159 -150.06 172.799 0 4
1237 1 3.11883 12.7076 -143.149 174.042 0 4
1376 1 2.22081 4.58802 -138.211 172.438 0 4
1772 1 2.51307 6.64819 -133.644 173.705 0 4
1821 1 2.59268 7.30024 -128.6 173.226 0 5
1155 1 3.11872 12.7062 -123.172 171.785 0 6
1342 1 3.10931 12.5916 -117.005 171.842 0 6
1241 1 2.52295 6.72691 -111.513 170.854 0 4
1315 1 2.6147 7.4878 -102.953 172.93 0 4
1271 1 2.42216 5.95249 -98.2115 171.608 0 3
1353 1 3.1261 12.7967 -92.6629 171.445 0 5
1599 1 3.06148 12.0194 -86.5821 172.139 0 5
1473 1 3.06818 12.0985 -70.8964 171.019 0 3
1820 1 2.43924 6.07927 -66.1211 173.913 0 4
1576 1 2.98976 11.1943 -55.4755 173.644 0 4
1223 1 2.24748 4.75529 -51.2356 170.67 0 2
1720 1 2.81844 9.37809 -46.1174 171.95 0 4
1201 1 2.77112 8.91365 -38.714 171.252 0 4
1372 1 2.29967 5.09429 -26.808 171.58 0 4
1782 1 2.31126 5.1717 -20.1939 173.465 0 3
325 1 2.61135 7.45909 -12.0262 170.762 0 5
398 1 3.05106 11.8971 -2.12981 172.707 0 5
303 1 2.36474 5.53911 3.06913 171.293 0 3
432 1 2.44309 6.1081 6.8854 174.161 0 5
320 1 2.96104 10.8748 12.164 173.31 0 5
182 1 2.42064 5.94127 22.2319 171.446 0 3
1702 1 2.55307 6.97068 27.1679 172.393 0 4
1644 1 2.98538 11.1452 36.3539 172.619 0 4
1446 1 2.9289 10.5245 42.1805 173.412 0 6
1503 1 2.30795 5.14951 50.7679 170.845 0 5
1351 1 2.43587 6.05411 47.444 174.146 0 5
1479 1 2.98308 11.1195 55.9516 170.975 0 6
1371 1 2.86367 9.83688 71.2503 172.682 0 3
1204 1 2.91621 10.3883 80.9946 172.687 0 4
1508 1 2.40976 5.86149 101.623 174.215 0 4
1687 1 2.82827 9.47661 109.646 172.012 0 5
1811 1 2.92924 10.5282 114.991 173.943 0 4
1654 1 2.41505 5.90024 122.365 171.004 0 5
1495 1 2.62479 7.57482 131.407 173.28 0 5
1628 1 2.97691 11.0506 136.529 171.015 0 5
1153 1 2.56327 7.05459 141.64 172.834 0 3
1259 1 2.81959 9.38962 146.64 171.175 0 5
1225 1 2.78913 9.08855 151.594 173.332 0 3
1707 1 3.04117 11.7818 159.4 172.439 0 4
1282 1 2.38823 5.70578 168.735 172.143 0 4
1587 1 2.19809 4.44862 176.974 173.289 0 4
659 1 2.25489 4.80249 181.767 171.527 0 2
874 1 2.97531 11.0328 -183.918 174.865 0 3
1374 1 2.77897 8.98961 -178.162 174.844 0 2
579 1 3.14941 13.085 -170.429 174.571 0 3
1169 1 2.94206 10.667 -153.897 176.582 0 4
1516 1 2.32595 5.27095 -147.602 177.03 0 3
1466 1 3.09899 12.4667 -137.547 177.652 0 5
1285 1 2.48356 6.41672 -130.785 177.705 0 4
1789 1 2.39134 5.72812 -125.21 176.8 0 4
1239 1 2.77874 8.98734 -120.099 176.737 0 5
1588 1 3.1405 12.9743 -113.523 176.927 0 4
1674 1 2.85454 9.7431 -107.979 174.848 0 5
1527 1 3.00787 11.399 -95.9944 176.468 0 4
1550 1 2.29858 5.08709 -90.0698 176.194 0 2
1666 1 2.58722 7.25416 -84.8315 177.451 0 3
1758 1 2.22368 4.60579 -80.9669 174.724 0 4
1238 1 3.07582 12.1891 -75.7092 174.88 0 5
1344 1 2.67772 8.04235 -70.3193 176.707 0 5
1729 1 2.83069 9.50092 -61.0578 175.121 0 5
1681 1 3.04529 11.8297 -49.6408 176.519 0 4
1319 1 2.16282 4.2379 -42.0756 174.84 0 3
1602 1 2.71769 8.40795 -35.5477 175.644 0 4
1704 1 2.5055 6.58825 -30.5867 174.37 0 4
312 1 3.01217 11.4479 -24.7958 176.43 0 3
233 1 2.84845 9.68083 -15.3223 175.05 0 4
185 1 3.1321 12.8705 -8.05998 174.878 0 4
305 1 3.01751 11.509 2.21974 176.883 0 4
446 1 3.00503 11.3667 17.839 175.019 0 5
1242 1 2.40404 5.81988 23.0922 176.119 0 4
210 1 2.5112 6.63332 27.7964 177.374 0 5
1227 1 2.2344 4.67276 31.4765 174.44 0 5
1535 1 2.20424 4.48606 52.5538 174.862 0 4
1680 1 2.92166 10.4467 59.7066 175.38 0 4
1493 1 2.50221 6.56237 65.0273 174.308 0 3
1659 1 2.47425 6.34485 76.0139 174.834 0 4
1156 1 2.86421 9.84244 85.085 176.635 0 5
1641 1 3.13219 12.8716 90.8975 176.031 0 5
1574 1 2.7749 8.95017 96.5578 174.728 0 4
1457 1 2.19705 4.4423 105.952 175.326 0 3
1218 1 3.03604 11.7223 110.455 177.747 0 6
1697 1 3.08156 12.2575 120.534 176.053 0 5
1504 1 2.84987 9.6954 126.146 174.58 0 6
1736 1 3.13862 12.9511 135.708 177.025 0 5
1187 1 2.30522 5.1313 141.044 177.606 0 5
1381 1 2.41762 5.91902 145.443 176.103 0 4
1575 1 2.94279 10.6749 155.749 176.987 0 5
1581 1 2.85786 9.77709 164.542 175.234 0 3
1636 1 2.94508 10.6999 172.534 175.748 0 5
1297 1 2.61295 7.47281 180.392 176.544 0 4
838 1 2.21979 4.58168 184.667 174.55 0 3
906 1 2.16963 4.27807 187.653 177.349 0 3
889 1 2.466 6.28158 -191.295 181.417 0 3
707 1 2.44988 6.15915 -188.005 178.078 0 3
1805 1 2.95413 10.7989 -183.338 180.595 0 5
1401 1 2.83538 9.54818 -177.677 180.962 0 4
1411 1 2.15803 4.20982 -173.201 178.983 0 3
1178 1 2.84448 9.64043 -168.92 181.46 0 4
1143 1 2.57685 7.16734 -164.667 178.392 0 4
1721 1 2.90749 10.2954 -159.308 178.435 0 5
1706 1 2.37504 5.61176 -150.459 180.659 0 3
1699 1 2.76357 8.84093 -142.952 179.801 0 4
1621 1 2.78266 9.0255 -127.183 181.459 0 4
1793 1 2.23595 4.68246 -122.207 181.226 0 3
1268 1 2.57264 7.13222 -117.273 181.165 0 4
1141 1 2.61417 7.48323 -107.435 180.215 0 4
1806 1 2.98526 11.1438 -102.148 178.434 0 3
1148 1 2.42794 5.99516 -97.7129 181.49 0 4
1235 1 2.85181 9.71513 -92.2827 180.933 0 2
1205 1 2.60786 7.42922 -79.3115 179.188 0 4
1486 1 2.70366 8.27835 -74.1834 180.406 0 5
1314 1 2.40009 5.79126 -64.957 178.593 0 3
1785 1 2.42849 5.99923 -60.1665 180.236 0 4
1595 1 3.06531 12.0646 -54.7949 179.637 0 3
1843 1 2.79392 9.1355 -44.4921 179.16 0 5
1558 1 2.30216 5.1109 -39.5055 178.588 0 3
1566 1 2.15199 4.17453 -35.3722 180.467 0 2
382 1 2.78072 9.00658 -29.8931 179.575 0 2
351 1 2.4999 6.54423 -19.5984 178.208 0 5
1946 1 2.41855 5.92587 -15.629 181.077 0 3
44 1 2.16487 4.24993 -11.8069 178.585 0 4
4 1 2.74522 8.66607 -3.32361 178.309 0 5
402 1 2.97881 11.0718 7.6422 179.493 0 3
1777 1 2.88451 10.0532 13.4672 178.933 0 5
348 1 2.21258 4.53717 19.3346 179.996 0 3
57 1 2.69813 8.22768 24.1288 181.054 0 6
1596 1 2.42331 5.96095 33.2234 178.686 0 4
1634 1 3.10469 12.5355 38.6865 178.256 0 3
1546 1 2.32488 5.26371 44.6723 177.983 0 3
1362 1 2.22987 4.64435 49.6665 178.183 0 3
1597 1 3.10665 12.5593 55.1828 179.354 0 4
1521 1 2.57105 7.11904 63.5156 179.177 0 4
1631 1 2.98612 11.1535 68.8951 178.101 0 3
1157 1 3.07388 12.1661 74.5078 180.114 0 5
1183 1 2.71237 8.3586 79.8471 178.148 0 5
1578 1 2.42924 6.00484 88.2232 180.848 0 5
1345 1 2.36989 5.57537 94.8048 179.716 0 3
1386 1 2.90348 10.2528 99.9774 179.202 0 5
1723 1 2.70017 8.24636 105.413 180.306 0 3
1322 1 3.0029 11.3426 115.975 179.838 0 5
1336 1 2.68732 8.12919 124.768 179.87 0 4
1684 1 2.78337 9.03235 130.002 178.487 0 6
1663 1 2.7234 8.46098 144.654 181.053 0 6
1185 1 3.11643 12.6783 150.063 178.989 0 5
1415 1 3.00779 11.3981 160.685 179.994 0 2
1658 1 2.76099 8.81624 168.22 179.447 0 3
1700 1 2.59564 7.32528 173.803 181.001 0 4
508 1 2.40501 5.82693 183.994 179.996 0 4
1069 1 2.58595 7.2435 190.499 180.792 0 3
1691 1 2.73869 8.60432 -187.195 184.586 0 4
1398 1 2.29911 5.09059 -173.383 183.668 0 3
1194 1 2.99215 11.2212 -162.333 183.318 0 4
1263 1 2.56912 7.103 -155.18 181.891 0 5
1547 1 3.09854 12.4613 -146.223 184.53 0 4
1287 1 2.76434 8.84837 -138.787 183.327 0 4
1633 1 2.64326 7.73584 -133.651 181.835 0 4
1673 1 2.7183 8.41362 -112.192 182.565 0 4
1316 1 2.9332 10.571 -101.983 184.55 0 3
1510 1 2.63856 7.69468 -86.9727 182.12 0 4
1320 1 2.67938 8.05735 -81.9602 183.66 0 4
1781 1 2.36521 5.54243 -77.0657 184.517 0 4
1735 1 2.83259 9.52008 -68.9333 181.99 0 5
1396 1 2.63488 7.6625 -63.8005 183.627 0 4
1823 1 2.6626 7.90693 -48.9826 182.164 0 4
1860 1 2.44817 6.14632 -44.2773 184.375 0 3
1845 1 2.26212 4.84883 -39.7523 183.113 0 3
1830 1 2.79571 9.15303 -28.3418 184.911 0 3
112 1 2.97328 11.0102 -23.3053 182.187 0 4
92 1 3.0628 12.0349 -7.80605 181.912 0 4
372 1 2.74077 8.62398 -2.1815 183.637 0 4
125 1 2.35298 5.4569 2.69083 182.186 0 4
1928 1 2.16276 4.23755 6.53703 184.495 0 3
76 1 2.34231 5.38297 11.1185 183.562 0 2
1299 1 2.2826 4.98168 16.1672 183.273 0 3
124 1 2.17412 4.30463 20.4834 184.219 0 4
1328 1 2.90127 10.2295 29.5104 182.451 0 6
373 1 2.1664 4.25895 34.5173 183.039 0 4
1802 1 2.43669 6.06021 39.0569 183.756 0 3
1408 1 2.30176 5.10824 43.9612 182.504 0 3
449 1 2.78225 9.02147 49.0033 183.095 0 5
1385 1 2.18493 4.36918 53.7718 184.402 0 4
1414 1 3.10803 12.5761 59.8044 183.4 0 4
1496 1 2.49049 6.47059 66.408 183.23 0 3
1534 1 2.81531 9.34694 78.7997 184.084 0 4
1778 1 2.44426 6.11692 83.454 181.686 0 5
1560 1 2.55678 7.00111 91.927 184.131 0 3
1216 1 2.66542 7.93207 97.0997 184.083 0 4
1410 1 2.35329 5.45903 102.02 183.977 0 5
1193 1 2.91377 10.3623 111.509 183.553 0 4
1536 1 2.19324 4.41925 120.431 182.306 0 3
1718 1 2.50038 6.54793 124.2 184.922 0 5
1338 1 2.26012 4.83596 128.628 183.335 0 3
1573 1 2.8585 9.78373 133.638 182.609 0 5
1683 1 2.89099 10.1211 139.26 182.41 0 5
1378 1 2.3107 5.16794 148.249 184.484 0 2
1784 1 3.01047 11.4285 154.792 182.743 0 3
1509 1 2.69869 8.23283 164.745 183.76 0 3
1660 1 2.82837 9.4776 170.012 184.727 0 5
801 1 2.83483 9.5427 179.103 181.738 0 5
809 1 2.83769 9.57154 186.669 184.474 0 4
769 1 2.24555 4.74307 193.992 183.704 0 3
592 1 2.94408 10.689 -194.586 185.433 0 3
1412 1 2.16881 4.27318 -190.351 188.175 0 3
1745 1 2.26966 4.89744 -182.231 185.597 0 3
1168 1 2.74631 8.67631 -177.389 186.475 0 5
1207 1 2.7328 8.54895 -172.405 188.621 0 3
1533 1 3.00521 11.3688 -166.977 186.921 0 4
1354 1 2.36284 5.52574 -161.324 188.439 0 4
1478 1 2.81134 9.30741 -156.435 187.04 0 4
1771 1 2.39747 5.77227 -151.605 185.254 0 5
1292 1 2.23914 4.70252 -142.87 188.644 0 3
1286 1 2.70472 8.28814 -137.954 188.644 0 4
1309 1 2.95629 10.8225 -132.532 187.245 0 4
1501 1 2.76065 8.813 -126.898 186.877 0 5
1392 1 2.64975 7.79294 -121.585 186.03 0 4
1391 1 2.76643 8.8684 -116.213 186.295 0 4
1165 1 2.44263 6.10467 -111.269 187.576 0 5
1306 1 2.39836 5.77875 -107.192 185.155 0 3
1448 1 2.94159 10.6619 -96.166 186.556 0 4
1528 1 2.98212 11.1087 -90.2973 186.535 0 4
1318 1 3.13026 12.8479 -84.6192 188.736 0 4
1810 1 2.63724 7.68309 -72.4021 186.155 0 4
1262 1 2.75792 8.78688 -67.2504 187.696 0 5
1488 1 2.76982 8.90112 -58.662 185.169 0 4
1418 1 2.82591 9.45291 -53.151 185.658 0 3
1470 1 2.35922 5.5004 -48.2132 187.111 0 4
1863 1 3.12313 12.7603 -38.8764 188.406 0 3
1872 1 2.82564 9.45014 -33.9164 185.189 0 3
1827 1 3.07975 12.2359 -18.4857 185.775 0 3
1903 1 2.91054 10.3279 -12.5434 185.478 0 2
1973 1 2.87711 9.976 -6.14939 187.593 0 2
1891 1 3.06203 12.0259 2.0839 187.539 0 3
1864 1 2.49667 6.51888 9.46872 188.08 0 5
1870 1 3.09404 12.407 15.0312 188.485 0 4
1869 1 2.38505 5.68307 20.5209 188.746 0 3
492 1 2.35629 5.47991 25.5432 185.878 0 3
367 1 3.0673 12.0881 30.4121 188.302 0 4
1972 1 2.26304 4.85471 35.6283 187.275 0 4
123 1 2.74068 8.62306 40.3653 188.744 0 4
1892 1 2.62466 7.57369 45.4573 187.155 0 5
1887 1 2.85581 9.75614 50.7551 188.42 0 5
1876 1 3.14331 13.0092 56.7153 188.786 0 5
1472 1 2.82255 9.41922 63.7045 187.789 0 3
1619 1 3.08399 12.2864 71.4664 185.386 0 4
1172 1 2.5905 7.28181 81.5929 188.677 0 4
1231 1 3.11559 12.668 86.6474 186.121 0 6
1423 1 2.16887 4.27356 101.883 188.427 0 4
1616 1 2.55791 7.01043 106.544 185.632 0 3
1767 1 2.40155 5.80179 110.985 188.762 0 4
1733 1 2.54839 6.93245 116.751 185.266 0 4
1350 1 2.8473 9.66915 127.763 188.758 0 3
1522 1 2.97244 11.0009 136.541 187.563 0 5
1236 1 2.47634 6.36093 143.166 185.922 0 4
1620 1 2.15477 4.19075 151.605 187.335 0 4
1676 1 2.77961 8.99582 156.409 188.152 0 5
1191 1 2.83042 9.49821 161.958 188.468 0 3
1776 1 3.02832 11.6331 175.5 186.293 0 6
1210 1 3.10067 12.4869 181.466 187.104 0 5
1323 1 3.04027 11.7713 191.312 188.028 0 6
580 1 2.67776 8.04269 196.95 187.368 0 4
1111 1 2.98389 11.1285 -198.628 189.478 0 4
1783 1 2.69287 8.17967 -193.518 191.694 0 5
1365 1 2.58566 7.24104 -185.108 189.406 0 4
1166 1 2.844 9.63557 -179.182 191.616 0 3
1656 1 2.3877 5.70203 -167.978 192.103 0 4
1744 1 2.28468 4.99531 -158.429 192.003 0 4
1462 1 2.22087 4.58837 -154.021 191.367 0 4
1678 1 3.06951 12.1142 -148.939 189.981 0 5
1393 1 2.23652 4.68608 -123.52 190.491 0 5
1430 1 2.33059 5.3026 -119.04 190.412 0 4
1497 1 2.63499 7.66348 -107.183 190.486 0 4
1567 1 2.23945 4.70447 -102.456 189.64 0 4
1667 1 2.18663 4.37939 -98.3613 191.131 0 4
1693 1 3.07571 12.1878 -93.2094 191.771 0 6
1265 1 2.74124 8.62842 -76.5818 189.564 0 3
1453 1 2.8979 10.1939 -71.3254 191.548 0 6
1927 1 2.81397 9.33355 -62.0254 189.579 0 3
1874 1 2.9062 10.2817 -44.4158 190.708 0 2
1922 1 2.41165 5.8753 5.90721 191.434 0 2
1847 1 2.45378 6.18861 24.9636 190.632 0 3
1931 1 2.29099 5.03683 34.5436 191.673 0 3
1834 1 2.78894 9.08666 44.4385 192.439 0 4
1964 1 2.2876 5.01452 68.3777 189.719 0 4
1175 1 2.9619 10.8843 76.0841 189.18 0 5
1146 1 2.37405 5.60481 86.0666 191.531 0 3
1755 1 3.06259 12.0325 91.2862 190.08 0 5
1301 1 2.81661 9.35983 97.0673 189.499 0 5
1307 1 2.98349 11.124 106.195 191.107 0 6
1757 1 2.26577 4.87232 115.47 189.837 0 4
1643 1 3.10417 12.5293 120.755 189.246 0 4
1623 1 2.54302 6.88871 132.466 191.17 0 4
1260 1 2.21246 4.53644 141.026 190.019 0 3
1234 1 3.09537 12.423 146.992 189.787 0 4
1189 1 3.00375 11.3522 167.611 189.926 0 4
1732 1 2.16607 4.25703 172.692 190.595 0 3
1786 1 2.54923 6.93932 177.742 191.278 0 4
1689 1 2.52508 6.74392 186.198 189.968 0 4
1125 1 2.51211 6.64056 200.57 190.81 0 2
683 1 2.63242 7.64106 -202.69 193.053 0 3
1604 1 2.40449 5.82315 -197.628 194.703 0 4
1642 1 2.22134 4.59128 -188.725 192.522 0 3
1742 1 3.09934 12.4709 -184 194.887 0 5
1747 1 2.92254 10.4561 -172.712 194.241 0 3
1192 1 2.55323 6.97204 -163.168 192.849 0 4
1333 1 2.66961 7.96956 -151.129 195.203 0 4
1529 1 2.21849 4.57365 -144.468 192.789 0 2
1593 1 2.24128 4.71603 -139.974 193.052 0 2
1212 1 2.80559 9.25041 -134.16 192.706 0 3
1512 1 3.03244 11.6806 -128.355 192.392 0 5
1416 1 2.33529 5.33474 -121.266 194.454 0 4
1685 1 2.18907 4.39406 -116.685 194.191 0 3
1611 1 2.73875 8.60495 -112.096 192.599 0 5
1868 1 2.95046 10.7586 -107.614 196.013 0 5
1403 1 2.95263 10.7825 -101.884 194.788 0 5
1970 1 2.36374 5.53206 -96.7021 195.876 0 3
1981 1 2.3466 5.41261 -87.9811 192.975 0 4
1878 1 2.89893 10.2048 -80.7502 193.332 0 2
1562 1 3.00286 11.3421 -75.3487 195.803 0 2
1838 1 2.42128 5.94597 -66.161 192.751 0 4
1969 1 2.84462 9.64191 11.289 193.079 0 2
1925 1 2.95379 10.7952 18.2753 193.568 0 2
1937 1 2.63168 7.63461 28.9375 193.787 0 2
1861 1 2.71117 8.34756 53.186 193.41 0 4
1862 1 2.70469 8.28782 60.8514 192.842 0 2
1855 1 2.93697 10.6118 66.2147 194.424 0 3
1986 1 2.46538 6.27686 72.0024 192.726 0 3
1968 1 2.57373 7.14132 79.5733 193.399 0 4
1461 1 2.23429 4.67203 83.826 195.503 0 4
1787 1 2.43301 6.03285 90.2752 195.453 0 2
1255 1 2.18289 4.35694 94.7866 193.929 0 3
1311 1 2.61342 7.47683 101.049 193.117 0 4
1614 1 2.59081 7.28445 111.037 193.69 0 4
1162 1 2.24274 4.72528 115.757 194.271 0 4
1645 1 2.19404 4.42405 120.128 194.453 0 4
1580 1 2.72498 8.4758 124.934 193.523 0 2
1406 1 2.69458 8.19525 137.238 193.148 0 4
1424 1 2.44647 6.13352 142.151 194.467 0 4
1321 1 2.9709 10.9837 147.32 195.764 0 4
1719 1 3.1156 12.6681 152.475 192.513 0 5
1743 1 2.56152 7.04016 158.037 193.086 0 4
1817 1 3.01642 11.4964 163.39 194.102 0 5
1270 1 2.95948 10.8576 169.074 195.645 0 5
1388 1 2.4764 6.3614 174.37 194.869 0 5
1627 1 2.23954 4.70505 182.259 192.49 0 4
1394 1 2.30648 5.1397 189.85 193.012 0 5
1305 1 2.98828 11.1777 195.098 192.644 0 5
714 1 3.00631 11.3812 203.95 194.938 0 2
913 1 2.37497 5.61128 -206.268 196.313 0 2
1638 1 2.80288 9.22367 -201.389 198.211 0 4
849 1 2.88946 10.105 -192.989 197.116 0 4
1252 1 2.75916 8.79869 -187.83 199.139 0 5
1199 1 3.07825 12.218 -177.747 197.296 0 4
1164 1 2.57269 7.13266 -170.559 199.513 0 2
1780 1 2.18386 4.3628 -166.943 196.5 0 3
1682 1 2.65295 7.82127 -162.344 197.866 0 4
1632 1 2.8136 9.32984 -156.83 196.811 0 2
1256 1 2.68223 8.08307 -147.113 198.601 0 3
1613 1 2.57772 7.17456 -142.122 197.26 0 4
1330 1 2.96799 10.9515 -136.677 197.84 0 4
1261 1 2.71799 8.41071 -131.075 197.348 0 5
1594 1 2.93344 10.5735 -125.458 197.571 0 5
1463 1 2.86103 9.80967 -118.494 198.832 0 4
1198 1 2.59685 7.33551 -113.076 197.787 0 3
1837 1 3.08802 12.3347 -90.9739 197.481 0 4
1848 1 2.54807 6.92982 -85.0259 196.818 0 3
1856 1 2.95992 10.8625 -80.1419 199.291 0 2
1992 1 2.16875 4.27285 -69.2345 196.148 0 2
1947 1 2.77769 8.97718 35.7565 196.566 0 2
1854 1 2.3866 5.69415 40.8919 196.181 0 2
1894 1 2.97154 10.9909 48.4629 196.523 0 2
1963 1 2.23595 4.68249 53.7619 198.307 0 1
1960 1 3.0455 11.8321 69.2532 199.517 0 2
1857 1 3.00433 11.3587 75.3485 197.012 0 3
1859 1 2.5422 6.88204 80.5333 198.933 0 2
1977 1 2.90693 10.2894 86.8829 199.555 0 4
1836 1 3.08317 12.2766 98.137 197.94 0 5
1579 1 2.96924 10.9654 105.833 197.008 0 3
1219 1 2.55815 7.01238 111.049 198.762 0 4
1525 1 2.62467 7.57376 117.614 198.703 0 2
1425 1 2.38632 5.6921 122.686 198.169 0 3
1609 1 2.33229 5.3142 127.162 199.512 0 3
1701 1 2.94672 10.7178 131.436 196.481 0 3
1822 1 3.02587 11.6049 138.654 198.634 0 4
1746 1 2.28712 5.01133 152.05 197.865 0 4
1417 1 2.94674 10.718 157.167 198.41 0 5
1557 1 2.49508 6.5064 172.858 199.526 0 5
1814 1 2.80353 9.23005 179.337 196.522 0 4
1669 1 2.96394 10.9068 185.795 196.179 0 4
1549 1 2.24478 4.73814 192.04 196.86 0 3
1224 1 2.86803 9.88189 197.505 197.899 0 3
785 1 2.18022 4.34103 208.05 197.811 0 3
709 1 2.27918 4.95932 -213.049 202.963 0 3
890 1 2.58792 7.26005 -209.488 199.878 0 2
1397 1 3.14167 12.9889 -204.675 203.026 0 3
1400 1 3.13251 12.8756 -196.692 201.736 0 4
1592 1 2.79994 9.19463 -182.525 200.534 0 5
1675 1 2.97074 10.9821 -175.071 202.663 0 5
1289 1 2.94111 10.6567 -164.417 202.951 0 4
1214 1 2.16536 4.25283 -159.359 201.581 0 2
1796 1 2.96009 10.8643 -152.489 200.594 0 3
1420 1 2.28944 5.02664 -142.953 202.002 0 4
1766 1 2.1963 4.43776 -133.206 201.695 0 4
1646 1 2.39318 5.74134 -128.63 201.827 0 3
1630 1 2.92593 10.4926 -122.712 202.709 0 4
1850 1 2.75578 8.76638 -114.61 202.87 0 4
1987 1 2.85907 9.78953 -109.166 201.565 0 6
1989 1 2.76812 8.88474 -103.728 200.168 0 5
1840 1 2.71883 8.41847 -98.2872 200.663 0 4
1904 1 2.17262 4.29579 -93.5999 202.021 0 2
1934 1 3.11015 12.6018 -86.899 202.13 0 2
1983 1 2.24472 4.73778 73.6221 202.422 0 2
1896 1 3.13422 12.8966 92.724 200.886 0 5
1971 1 2.34097 5.37376 97.6179 203.32 0 3
1950 1 2.20127 4.46796 102.475 200.901 0 3
1994 1 2.82655 9.45926 108.137 203.235 0 3
1692 1 2.83911 9.58592 114.052 203.181 0 3
1921 1 2.15742 4.20624 119.009 203.223 0 4
1929 1 2.15123 4.17015 123.225 202.63 0 3
1196 1 2.54673 6.91887 132.554 201.8 0 3
1355 1 2.43528 6.04969 143.102 201.762 0 2
1608 1 2.85738 9.77216 148.364 201.416 0 5
1202 1 2.68019 8.06467 153.703 202.764 0 3
1421 1 2.19509 4.43045 158.648 203.253 0 2
1764 1 3.06444 12.0542 162.848 200.088 0 4
1152 1 2.40917 5.85721 168.192 200.861 0 5
1538 1 2.61406 7.48231 177.47 201.564 0 4
1370 1 2.73683 8.58686 182.724 200.864 0 5
1532 1 2.17903 4.3339 187.623 200.928 0 3
1626 1 2.98096 11.0958 192.803 201.909 0 4
1190 1 2.38704 5.69727 198.014 203.082 0 3
1290 1 2.28411 4.99157 202.135 200.039 0 2
1209 1 2.18986 4.39885 206.237 201.694 0 3
812 1 2.53534 6.82651 211.006 201.256 0 2
705 1 2.16862 4.2721 -216.197 205.876 0 3
1195 1 2.64962 7.7918 -209.422 206.216 0 4
1590 1 2.71846 8.41503 -199.865 206.532 0 2
1507 1 2.69109 8.16343 -191.163 203.287 0 5
1451 1 2.26472 4.86556 -186.263 203.836 0 5
1539 1 2.44352 6.11132 -179.9 204.998 0 4
1317 1 3.07597 12.1908 -169.797 205.544 0 3
1444 1 2.37093 5.58271 -160.241 206.166 0 4
1267 1 2.28317 4.98542 -155.992 204.411 0 4
1749 1 2.99521 11.2557 -147.699 204.159 0 4
1888 1 2.60762 7.42714 -142.526 206.86 0 4
1179 1 3.00115 11.3227 -137.975 203.615 0 5
1664 1 2.93083 10.5453 -132.545 206.728 0 4
1880 1 2.96135 10.8782 -118.616 206.895 0 4
1910 1 2.82295 9.4232 -105.132 205.552 0 4
1940 1 2.30001 5.0966 -99.4015 205.533 0 2
1842 1 2.35472 5.46895 78.0848 203.346 0 2
1898 1 3.09756 12.4494 83.395 204.4 0 3
1833 1 2.35882 5.49762 88.8127 204.717 0 3
1839 1 2.97196 10.9956 93.6534 206.894 0 3
1920 1 2.25768 4.82029 103.493 205.216 0 3
1933 1 3.05372 11.9282 127.883 204.821 0 5
1347 1 2.75319 8.74176 137.227 204.187 0 4
1266 1 2.68358 8.09525 141.88 206.911 0 3
1615 1 2.25352 4.79371 146.696 206.168 0 4
1563 1 2.50622 6.59398 165.511 204.899 0 4
1329 1 3.03825 11.7479 171.716 204.898 0 4
1302 1 2.44772 6.14293 176.875 206.525 0 5
1180 1 2.8525 9.72222 182.083 206.326 0 3
1049 1 2.88561 10.0647 188.495 205.866 0 3
1254 1 3.10008 12.4797 204.783 206.702 0 4
830 1 2.78815 9.079 214.47 205.072 0 3
638 1 2.91831 10.4108 -219.038 209.923 0 2
1413 1 2.28625 5.00567 -213.314 209.125 0 4
1181 1 2.81163 9.31031 -204.749 208.912 0 5
1357 1 2.84834 9.67976 -194.277 207.76 0 2
1731 1 2.52937 6.77839 -188.786 207.831 0 4
1752 1 2.31024 5.16486 -183.822 207.613 0 4
1761 1 2.65949 7.87924 -179.54 210.035 0 4
1552 1 2.52363 6.73237 -174.75 208.117 0 4
1167 1 2.30197 5.10961 -164.434 208.121 0 4
1499 1 3.04499 11.8263 -156.846 210.348 0 4
1367 1 2.5953 7.32235 -152.174 207.34 0 4
1991 1 2.69342 8.18464 -146.948 209.752 0 4
1240 1 2.91921 10.4204 -137.663 209.482 0 5
1883 1 3.07448 12.1732 -126.6 207.209 0 4
1944 1 2.29141 5.03962 -122.39 210.511 0 3
1895 1 2.88894 10.0996 -110.62 207.092 0 3
1853 1 2.20886 4.51435 -101.819 209.324 0 2
1954 1 2.92442 10.4763 99.3564 208.282 0 3
1879 1 2.74384 8.65299 110.638 208.184 0 2
1974 1 2.55678 7.00112 115.924 208.211 0 4
1897 1 3.03051 11.6583 121.476 207.733 0 4
1975 1 2.22377 4.60633 126.262 209.816 0 3
1163 1 2.75534 8.76218 132.908 207.639 0 2
1884 1 2.16748 4.26534 137.573 209.054 0 5
1364 1 2.81067 9.30072 151.451 207.714 0 4
1513 1 2.66477 7.92629 161.056 207.389 0 4
1468 1 3.06891 12.1072 167.519 210.02 0 4
1171 1 2.77765 8.97681 194.292 207.366 0 4
1402 1 2.40602 5.83427 199.416 207.617 0 4
789 1 2.8875 10.0845 210.331 208.801 0 4
982 1 2.3834 5.67127 218.266 208.353 0 3
623 1 2.6439 7.74149 -223.123 213.499 0 3
1617 1 2.63266 7.64314 -209.266 211.811 0 4
1763 1 3.10339 12.5198 -198.214 212.117 0 2
1751 1 2.48481 6.42637 -191.15 212.17 0 3
1160 1 2.62593 7.58473 -185.892 212.01 0 4
1913 1 2.7312 8.5339 -172.909 213.019 0 4
1490 1 2.51818 6.68885 -168.06 211.18 0 3
1980 1 2.55698 7.00282 -162.053 212.313 0 3
1905 1 2.32303 5.25116 -151.325 212.143 0 4
1911 1 3.06213 12.0271 -142.338 213.136 0 5
1844 1 2.50855 6.6124 -134.832 214.087 0 3
1867 1 2.75411 8.75047 -130.097 211.841 0 4
1882 1 2.27331 4.9211 -125.496 213.83 0 2
1832 1 2.92981 10.5343 -114.672 211.241 0 2
1984 1 2.85512 9.74903 118.643 212.871 0 2
1926 1 3.05979 11.9995 129.675 213.807 0 2
1993 1 2.24096 4.71401 134.76 212.407 0 2
1841 1 2.85547 9.7526 141.022 212.639 0 3
1962 1 2.73748 8.59294 146.389 211.102 0 3
1958 1 2.47985 6.388 151.269 212.957 0 2
1982 1 3.07912 12.2284 156.45 210.73 0 4
1819 1 3.03051 11.6584 162.153 212.913 0 5
1730 1 2.91956 10.4241 173.434 210.559 0 4
1349 1 2.45933 6.23071 178.9 210.943 0 2
1775 1 2.84512 9.64695 184.996 211.102 0 3
1276 1 2.59281 7.30129 190.368 210.974 0 5
1624 1 2.37675 5.6239 195.091 212.376 0 5
1724 1 2.53531 6.82628 199.951 212.49 0 4
1640 1 2.50039 6.54802 204.935 212.262 0 3
1756 1 2.24755 4.75571 209.389 213.743 0 4
1657 1 2.41477 5.89815 214.793 211.638 0 2
782 1 2.63155 7.63349 221.575 211.918 0 3
1127 1 2.74346 8.64938 -226.742 217.327 0 3
1482 1 2.92117 10.4414 -219.383 217.507 0 4
1182 1 3.08949 12.3524 -214.367 214.318 0 4
1233 1 2.72221 8.44989 -208.787 217.097 0 4
1390 1 3.0081 11.4016 -203.746 214.54 0 5
1422 1 2.88083 10.0148 -194.111 216.579 0 4
1629 1 2.76999 8.90277 -188.467 216.651 0 5
1846 1 2.31107 5.17045 -183.403 216.222 0 3
1284 1 3.07421 12.1699 -178.087 215.517 0 5
1912 1 2.33458 5.32982 -165.782 215.419 0 4
1957 1 2.2057 4.49499 -158.258 215.335 0 4
1938 1 2.29626 5.07168 -153.832 215.976 0 4
1961 1 2.48083 6.39555 -147.518 215.029 0 4
1866 1 2.37676 5.62402 -138.649 217.111 0 2
1953 1 3.06413 12.0506 145.228 216.754 0 4
1873 1 2.38275 5.6666 150.559 217.73 0 3
1995 1 3.12208 12.7473 156.585 216.9 0 2
1865 1 3.1319 12.8681 167.352 216.163 0 4
1483 1 2.8875 10.0845 175.626 215.869 0 3
1343 1 2.55875 7.01735 181.145 215.387 0 3
1442 1 2.45398 6.19013 186.067 216.218 0 5
1186 1 3.06932 12.1119 191.526 216.464 0 5
1471 1 2.41239 5.88072 196.956 216.714 0 4
1226 1 2.48111 6.39773 201.802 217.116 0 3
1217 1 2.59469 7.31724 213.067 216.784 0 4
1230 1 2.77765 8.97682 218.36 216.149 0 4
1251 1 2.2277 4.63085 225.13 215.041 0 3
1249 1 2.58815 7.26204 -223.273 221.347 0 3
1379 1 2.50628 6.59446 -213.202 219.749 0 3
1447 1 2.47285 6.33402 -204.408 219.899 0 4
1754 1 2.7698 8.90093 -199.437 218.314 0 4
1762 1 2.42661 5.98536 -185.916 221.112 0 4
1996 1 2.704 8.28151 -180.878 220.519 0 5
1807 1 2.90783 10.299 -175.304 220.785 0 3
1943 1 2.88464 10.0546 -170.281 217.976 0 4
1945 1 2.24431 4.73521 -165.726 220.315 0 3
1889 1 2.3335 5.32249 -161.891 217.93 0 4
1951 1 2.37831 5.63498 -156.71 219.635 0 3
1932 1 2.25485 4.80222 -150.309 218.836 0 2
1978 1 2.55425 6.98041 -143.895 218.513 0 2
1826 1 2.15517 4.19306 161.745 218.039 0 3
1985 1 2.38269 5.6662 171.764 219.402 0 3
1384 1 2.55952 7.02371 178.407 220.498 0 3
1794 1 2.20015 4.46116 183.068 219.718 0 4
1332 1 2.45838 6.22351 187.98 220.706 0 2
1726 1 2.77612 8.96195 206.937 218.031 0 4
1514 1 2.21961 4.58054 210.885 221.031 0 4
1467 1 2.79086 9.10549 216.126 221.167 0 4
1714 1 2.29964 5.09409 222.664 218.804 0 3
1340 1 3.07283 12.1536 228.177 219.234 0 3
711 1 2.38546 5.68599 -234.74 224.758 0 3
993 1 3.02954 11.6472 -230.529 221.537 0 3
1618 1 2.40573 5.83214 -217.285 222.33 0 4
1380 1 2.61899 7.52474 -208.768 222.397 0 4
1688 1 2.96458 10.9138 -201.735 224.56 0 5
1405 1 2.60048 7.36629 -196.517 222.788 0 4
1377 1 2.9206 10.4353 -191.198 221.565 0 5
1966 1 2.5142 6.65717 -168.676 223.976 0 2
1890 1 3.11152 12.6184 -160.833 223.243 0 2
1901 1 2.82566 9.45037 145.822 222.589 0 1
1907 1 2.88457 10.0538 153.262 222.212 0 2
1875 1 3.03206 11.6762 159.15 222.492 0 4
1949 1 3.00987 11.4217 165.179 221.876 0 3
1900 1 3.0774 12.2079 172.465 224.777 0 2
1382 1 2.72354 8.46229 184.109 224.489 0 4
1542 1 2.6131 7.47407 193.315 221.801 0 4
1610 1 2.66896 7.96374 198.578 221.462 0 4
1923 1 2.66341 7.91413 203.774 222.373 0 4
1313 1 2.26816 4.88778 208.146 224.553 0 4
1361 1 2.90669 10.2869 224.257 223.736 0 2
1368 1 2.85645 9.76268 232.462 223.179 0 3
1010 1 2.18752 4.38475 -237.932 227.899 0 3
1788 1 2.39401 5.74731 -231.292 227.983 0 4
1815 1 2.94384 10.6864 -226.46 225.826 0 5
1431 1 2.99417 11.244 -220.631 226.452 0 4
1247 1 2.96133 10.878 -213.187 225.692 0 4
1502 1 2.21474 4.55046 -206.451 226.611 0 3
1955 1 2.37979 5.64552 -197.419 227.672 0 5
1184 1 2.20361 4.48222 -193.078 226.279 0 3
1515 1 2.78435 9.04191 -186.617 226.228 0 3
1835 1 2.81045 9.29854 -178.688 225.522 0 4
1909 1 2.62356 7.56415 -173.314 226.065 0 3
1917 1 2.37567 5.61629 162.639 226.609 0 2
1918 1 2.25394 4.79638 179.203 225.215 0 3
1176 1 2.90212 10.2385 189.554 225.805 0 4
1440 1 2.17754 4.32502 196.142 225.613 0 4
1956 1 2.22734 4.6286 199.685 228.156 0 3
1979 1 2.41441 5.8955 204.226 227.371 0 3
1679 1 2.53612 6.83275 212.857 225.319 0 5
1858 1 2.66335 7.91362 219.006 225.722 0 3
1215 1 3.06634 12.0767 228.883 227.814 0 4
1715 1 2.76819 8.88542 236.431 227.038 0 3
611 1 2.2361 4.68339 -241.06 230.894 0 3
1804 1 2.69887 8.23443 -234.785 231.631 0 4
1849 1 2.25936 4.83111 -227.659 230.842 0 4
1852 1 3.13001 12.8448 -222.479 232.244 0 4
1441 1 3.14631 13.0465 -216.373 230.848 0 4
1948 1 2.79747 9.17034 -209.793 230.302 0 4
1942 1 2.17291 4.29749 -201.51 229.657 0 4
1997 1 2.95455 10.8035 -192.21 231.322 0 4
1647 1 2.84625 9.65847 -186.446 231.825 0 5
1147 1 2.19522 4.43121 -182.396 228.848 0 4
1881 1 2.91064 10.3289 -176.286 230.695 0 3
1915 1 3.13078 12.8542 176.238 229.682 0 2
1899 1 2.51454 6.65988 184.04 229.706 0 1
1885 1 2.1798 4.3385 193.461 229.019 0 3
1458 1 2.4276 5.99265 209.558 229.007 0 3
1906 1 2.9834 11.123 215.51 230.109 0 4
1924 1 3.05635 11.9591 223.091 229.647 0 3
1159 1 3.02089 11.5476 233.347 231.899 0 4
1816 1 2.86536 9.85436 240.28 231.049 0 3
1492 1 2.51396 6.65521 -244.026 234.509 0 2
1543 1 2.42705 5.98856 -238.718 234.867 0 4
1976 1 2.5875 7.25653 -229.184 235.393 0 3
1967 1 2.37011 5.57694 -212.434 234.713 0 2
1930 1 2.91546 10.3803 -204.98 233.341 0 2
1990 1 2.76403 8.84542 -197.72 232.79 0 3
1988 1 2.79682 9.16395 -181.132 233.671 0 3
1959 1 2.42434 5.96858 195.112 233.295 0 2
1919 1 2.29065 5.0346 199.77 232.633 0 3
1999 1 3.07157 12.1387 205.195 232.725 0 3
1914 1 3.08056 12.2455 211.136 234.265 0 4
1828 1 2.82293 9.42301 217.275 235.608 0 3
1941 1 2.39704 5.76916 222.449 235.042 0 4
1893 1 2.93574 10.5985 227.575 233.638 0 3
1803 1 2.43161 6.02242 237.43 235.474 0 3
1253 1 2.84858 9.68217 244.283 235.046 0 2
1387 1 2.3592 5.50025 -247.636 237.68 0 3
1935 1 2.37747 5.62901 -239.534 239.559 0 3
1829 1 2.61499 7.49027 -234.135 236.903 0 3
1278 1 2.24526 4.7412 -222.533 237.59 0 3
1902 1 3.02244 11.5654 -217.336 236.913 0 3
2000 1 2.92355 10.467 -189.659 236.594 0 2
1952 1 3.02225 11.5633 200.798 237.815 0 2
1871 1 3.06706 12.0852 206.824 238.621 0 3
1908 1 2.27953 4.96162 220.71 239.368 0 2
1916 1 2.78432 9.0416 231.805 237.473 0 2
1232 1 2.65372 7.82804 248.288 238.747 0 3
1553 1 2.66264 7.9073 -250.916 241.4 0 2
1939 1 2.17267 4.29606 -243.988 240.305 0 3
1965 1 2.85852 9.78387 -226.833 240.274 0 3
1556 1 2.40473 5.8249 239.541 239.788 0 2
1851 1 2.31505 5.19719 245.83 243.04 0 2
1484 1 2.25561 4.80707 251.984 241.921 0 2
1740 1 2.97817 11.0646 -254.632 245.575 0 2
1877 1 2.25912 4.82957 -244.403 244.7 0 1
1886 1 2.89112 10.1225 -237.173 244.23 0 2
1936 1 3.05683 11.9647 -231.249 244.163 0 2
1831 1 2.71488 8.38188 241.077 244.648 0 2
1722 1 2.29672 5.07475 255.158 245.138 0 2
1439 1 2.88249 10.0321 -258.818 249.621 0 2
1280 1 2.28798 5.017 258.388 248.356 0 2
1725 1 2.98239 11.1118 -262.877 253.819 0 1
1665 1 2.22057 4.58652 261.612 251.486 0 1
